# vtk DataFile Version 3.0
Malha poro mec                
ASCII
DATASET UNSTRUCTURED_GRID
FIELD FieldData 3
TIME(s) 1 1 double
        0.000000
TIME(h) 1 1 double
        0.000000
CYCLE 1 1 int
        0
POINTS       1377 double
   -0.72943E-01   -0.24354E+00   -0.13920E+00
   -0.31961E-01   -0.23840E+00   -0.23471E+00
   -0.10146E+00   -0.18212E+00   -0.22684E+00
    0.13174E-01   -0.19658E+00   -0.14907E+00
   -0.10168E+00   -0.28878E+00   -0.23089E+00
   -0.13858E-01   -0.29891E+00   -0.11910E+00
   -0.78090E-01   -0.19897E+00   -0.62840E-01
    0.31379E+00   -0.26190E+00   -0.50000E+00
    0.37591E+00   -0.20287E+00   -0.50000E+00
    0.38956E+00   -0.31344E+00   -0.41188E+00
    0.41573E+00   -0.27779E+00   -0.50000E+00
   -0.14939E+00   -0.28376E+00   -0.13724E+00
   -0.42362E+00   -0.11037E+00   -0.13535E+00
   -0.41451E+00   -0.58487E-01   -0.20648E+00
   -0.49299E+00   -0.83425E-01   -0.13983E+00
   -0.50000E+00    0.00000E+00   -0.10000E+00
   -0.92114E-01   -0.29766E+00   -0.52394E-01
    0.43726E-01   -0.30115E+00   -0.23579E+00
    0.39635E-01   -0.18347E+00   -0.22749E+00
    0.23317E-01   -0.17057E+00   -0.30899E+00
   -0.24250E-01   -0.33208E+00   -0.30314E+00
   -0.13378E-01   -0.40914E+00   -0.21523E+00
    0.25622E-01   -0.23898E+00   -0.36904E+00
   -0.77210E-01   -0.23437E+00   -0.35788E+00
   -0.57255E-01   -0.10124E+00   -0.22210E+00
   -0.12728E+00   -0.18891E+00   -0.14511E+00
   -0.18492E+00   -0.25967E+00    0.17096E+00
   -0.22816E+00   -0.24068E+00    0.10719E+00
   -0.19683E+00   -0.35930E+00    0.12386E+00
   -0.27851E+00   -0.32231E+00    0.14566E+00
   -0.12730E+00   -0.28275E+00    0.59324E-01
   -0.10822E+00   -0.19284E+00    0.14978E+00
   -0.14291E+00   -0.28923E+00    0.22957E+00
   -0.21003E+00   -0.34777E+00    0.22191E+00
   -0.98290E-01   -0.30773E+00    0.13907E+00
   -0.17747E+00   -0.16473E+00    0.16269E+00
   -0.25743E+00   -0.18067E+00    0.19742E+00
   -0.20703E+00   -0.14142E+00    0.90133E-01
   -0.17997E+00   -0.17265E+00    0.21934E-01
   -0.15531E+00   -0.89851E-01    0.74836E-01
   -0.23723E+00   -0.10154E+00    0.15057E+00
   -0.13592E+00   -0.18603E+00    0.23021E+00
   -0.16439E+00   -0.80061E-01    0.23278E+00
    0.17615E+00   -0.16762E+00    0.26546E-02
    0.15340E+00   -0.18303E+00   -0.80879E-01
    0.16018E+00   -0.67328E-01   -0.56347E-01
    0.23975E+00   -0.88088E-01   -0.30657E-01
    0.80304E-01   -0.19854E+00   -0.55770E-01
    0.20806E+00   -0.25409E+00   -0.66511E-01
    0.15701E+00   -0.26487E+00    0.53624E-01
    0.12746E+00   -0.28478E+00   -0.54161E-01
    0.11643E+00   -0.78316E-01    0.31539E-02
    0.19467E+00   -0.15295E+00    0.77103E-01
    0.25225E+00   -0.94789E-01    0.44444E-01
    0.28024E+00   -0.18669E+00   -0.43851E-01
    0.23758E+00   -0.21606E+00    0.61381E-01
    0.31303E+00   -0.14461E+00    0.74893E-01
   -0.39722E-01   -0.14130E+00   -0.12596E-01
   -0.10320E+00   -0.14623E+00    0.32639E-01
   -0.46173E-01   -0.21350E+00    0.48496E-01
    0.40052E-01   -0.89404E-01   -0.41552E-01
    0.39489E-03   -0.20664E+00   -0.19350E-01
   -0.63891E-01   -0.99044E-01   -0.73417E-01
   -0.10113E-01   -0.19573E+00    0.24102E+00
   -0.32848E-01   -0.16813E+00    0.31296E+00
   -0.14176E+00   -0.14226E+00    0.30057E+00
   -0.84032E-01   -0.23591E+00    0.27361E+00
   -0.90331E-01   -0.28988E+00    0.39966E+00
   -0.13861E+00   -0.33567E+00    0.30160E+00
   -0.34515E-01   -0.33864E+00    0.36833E+00
   -0.15436E+00   -0.19487E+00    0.36274E+00
   -0.21964E+00   -0.25195E+00    0.27828E+00
   -0.28860E-01   -0.23815E+00    0.36673E+00
    0.12167E+00   -0.30133E+00    0.28446E+00
    0.18405E+00   -0.39409E+00    0.29563E+00
    0.12814E+00   -0.32166E+00    0.36411E+00
    0.11410E+00   -0.42238E+00    0.29645E+00
    0.25322E+00   -0.33092E+00    0.30181E+00
    0.18736E+00   -0.26361E+00    0.23174E+00
    0.19113E+00   -0.26486E+00    0.36770E+00
    0.20001E-01   -0.33167E+00    0.30061E+00
    0.39547E-01   -0.29753E+00    0.21837E+00
    0.12382E+00   -0.38788E+00    0.22271E+00
   -0.43136E-01   -0.24524E+00    0.50000E+00
   -0.54092E-01   -0.19617E+00    0.44018E+00
   -0.14686E+00   -0.24375E+00    0.43154E+00
   -0.15316E+00   -0.32110E+00    0.42837E+00
   -0.89855E-01   -0.42180E+00    0.37118E+00
   -0.16895E+00   -0.39869E+00    0.43112E+00
   -0.23404E-01   -0.30513E+00    0.43843E+00
    0.40839E+00   -0.54700E-01    0.39510E+00
    0.35328E+00    0.00000E+00    0.41911E+00
    0.43443E+00    0.00000E+00    0.43458E+00
    0.41887E+00    0.00000E+00    0.35378E+00
   -0.20555E+00   -0.28080E+00    0.36544E+00
   -0.72912E-01   -0.13254E+00   -0.28876E+00
   -0.29392E-01   -0.57896E-01   -0.30178E+00
    0.15440E-01   -0.75511E-01   -0.23261E+00
    0.10373E+00   -0.29428E+00    0.13404E+00
    0.21516E-01   -0.19728E+00    0.15649E+00
    0.12243E+00   -0.28636E+00    0.19329E+00
    0.12365E-01   -0.30492E+00    0.12307E+00
    0.93618E-01   -0.18270E+00    0.59894E-01
    0.16042E-01   -0.24834E+00    0.39427E-01
    0.10058E+00   -0.29959E+00    0.37710E-01
    0.67250E-01   -0.41847E+00    0.16536E+00
    0.15091E+00   -0.17523E+00    0.14013E+00
    0.19943E+00   -0.25255E+00    0.13014E+00
    0.16992E+00   -0.37043E+00    0.12552E+00
    0.92770E-01   -0.39052E+00    0.51897E-01
    0.24883E+00   -0.35816E+00    0.38244E+00
    0.27833E+00   -0.41537E+00    0.31710E+00
    0.23575E+00   -0.44093E+00    0.40955E+00
    0.18923E+00   -0.46281E+00    0.31857E+00
    0.19649E+00   -0.29738E+00   -0.35236E+00
    0.18040E+00   -0.24326E+00   -0.41908E+00
    0.11555E+00   -0.27090E+00   -0.36718E+00
    0.24803E+00   -0.18657E+00   -0.35799E+00
   -0.19653E+00   -0.16132E+00   -0.81913E-01
   -0.25251E+00   -0.84116E-01   -0.66495E-01
   -0.18005E+00   -0.68064E-01   -0.10353E+00
   -0.23200E+00   -0.10589E+00   -0.15122E+00
    0.26084E+00   -0.28967E+00   -0.41126E+00
    0.12466E+00   -0.32878E+00   -0.29964E+00
    0.21881E+00   -0.25395E+00   -0.28682E+00
    0.19234E+00   -0.39409E+00   -0.33796E+00
    0.25113E+00   -0.32464E+00   -0.31209E+00
    0.26105E+00   -0.36657E+00   -0.37914E+00
    0.15253E+00   -0.33818E+00   -0.40948E+00
    0.20866E+00   -0.18622E+00   -0.12928E+00
    0.19407E+00   -0.16214E+00   -0.25739E+00
    0.26241E+00   -0.20498E+00   -0.19675E+00
    0.22165E+00   -0.26873E+00   -0.19811E+00
    0.31611E+00   -0.27250E+00   -0.14013E+00
    0.27402E+00   -0.32834E+00   -0.15771E+00
    0.98867E-01   -0.81749E-01   -0.12883E+00
    0.11741E+00   -0.19065E+00   -0.18590E+00
    0.29399E+00   -0.16521E+00   -0.12465E+00
    0.23393E+00   -0.10449E+00   -0.15611E+00
   -0.32600E-01   -0.33923E+00    0.34147E-01
    0.49659E-01   -0.31681E+00   -0.42348E-01
    0.14393E+00   -0.39394E+00    0.38175E+00
    0.15715E+00   -0.38425E+00    0.50000E+00
    0.14424E+00   -0.47874E+00    0.40988E+00
    0.11040E+00   -0.17348E+00   -0.29299E+00
    0.11783E+00   -0.27970E+00   -0.21393E+00
    0.10854E+00   -0.12442E+00   -0.41767E+00
    0.17178E+00   -0.14093E+00   -0.35287E+00
    0.99497E-01   -0.21199E+00   -0.43137E+00
    0.98033E-01   -0.39141E+00   -0.15843E+00
    0.15133E+00   -0.47655E+00   -0.23527E+00
    0.10886E+00   -0.48801E+00   -0.14406E+00
    0.55063E-01   -0.49696E+00   -0.23479E+00
   -0.13726E+00   -0.75095E-01    0.13753E+00
   -0.48917E-01   -0.10101E+00    0.83337E-01
   -0.11029E+00   -0.65980E-01    0.11395E-01
   -0.17871E-01   -0.59174E-01   -0.19175E-01
   -0.16240E+00   -0.24410E+00   -0.33565E+00
   -0.15096E+00   -0.13948E+00   -0.33878E+00
    0.23265E+00   -0.10445E+00    0.14834E+00
    0.10459E+00   -0.79939E-01    0.12351E+00
    0.10729E+00    0.00000E+00    0.15409E+00
    0.17194E+00   -0.68629E-01    0.94261E-01
   -0.41425E+00   -0.11003E+00   -0.44491E+00
   -0.39087E+00   -0.17966E+00   -0.50000E+00
   -0.44502E+00   -0.22794E+00   -0.40887E+00
   -0.46194E+00   -0.19134E+00   -0.50000E+00
   -0.25135E+00   -0.33070E+00   -0.30755E+00
   -0.18752E+00   -0.26474E+00   -0.23702E+00
   -0.12464E+00   -0.32265E+00   -0.30121E+00
   -0.22698E+00   -0.16080E+00   -0.36369E+00
   -0.12832E+00   -0.19819E+00   -0.43406E+00
   -0.17873E+00   -0.17595E+00   -0.23863E+00
   -0.27400E+00   -0.70045E-01    0.23451E+00
   -0.34828E+00   -0.81481E-01    0.18484E+00
   -0.31382E+00   -0.14225E+00    0.12608E+00
   -0.38409E+00   -0.14243E+00    0.22899E+00
   -0.23787E+00   -0.92090E-01    0.30668E+00
   -0.31002E+00   -0.15804E+00    0.27021E+00
   -0.23734E+00   -0.17912E+00    0.29662E+00
   -0.27557E+00   -0.15653E+00    0.36861E+00
   -0.36341E+00   -0.19423E+00    0.31845E+00
    0.30611E-01   -0.40022E+00    0.44199E+00
    0.45740E-01   -0.41045E+00    0.50000E+00
   -0.21681E-01   -0.33462E+00    0.50000E+00
   -0.38038E-01   -0.42510E+00    0.50000E+00
   -0.41428E+00   -0.12693E+00    0.65444E-01
   -0.49157E+00   -0.91438E-01    0.61226E-01
   -0.46210E+00   -0.19096E+00    0.46519E-01
   -0.47350E+00   -0.16063E+00    0.14013E+00
   -0.28721E+00   -0.27641E+00    0.23058E+00
   -0.35703E+00   -0.22255E+00    0.23036E+00
   -0.30711E+00   -0.25683E+00    0.29926E+00
    0.15592E+00   -0.57387E-01    0.29866E+00
    0.24276E+00    0.00000E+00    0.24843E+00
    0.15485E+00    0.00000E+00    0.24191E+00
    0.20354E+00    0.00000E+00    0.32613E+00
   -0.36516E+00   -0.21231E+00    0.45517E-01
   -0.33213E+00   -0.25363E+00    0.14490E+00
   -0.28036E+00   -0.18875E+00    0.49575E-01
   -0.41781E+00   -0.12762E+00    0.17420E+00
   -0.37061E+00   -0.66104E-01    0.87341E-01
   -0.34084E+00   -0.10216E+00    0.14334E-01
   -0.26004E+00   -0.69051E-01    0.36185E-01
   -0.38979E+00   -0.18580E+00    0.14189E+00
   -0.31948E+00    0.00000E+00    0.10296E+00
    0.22738E+00   -0.34360E+00   -0.50000E+00
    0.27434E+00   -0.21676E+00   -0.43941E+00
    0.19269E+00   -0.17299E+00   -0.43101E+00
    0.11326E+00   -0.17971E+00   -0.50000E+00
    0.12250E+00   -0.28751E+00   -0.50000E+00
    0.21312E+00   -0.22996E+00   -0.50000E+00
    0.54184E-02   -0.41756E+00    0.21232E+00
   -0.49420E-01   -0.30517E+00    0.20845E+00
   -0.39546E-03   -0.42065E+00    0.10963E+00
   -0.95258E-01   -0.40972E+00    0.15922E+00
   -0.15077E+00   -0.38397E+00    0.21298E+00
    0.44098E-01   -0.10015E+00    0.70624E-01
    0.10445E+00   -0.18264E+00    0.22237E+00
    0.80793E-01   -0.80820E-01    0.21425E+00
   -0.43231E+00   -0.25121E+00    0.13618E+00
    0.80010E-01   -0.23013E+00    0.35789E+00
    0.63114E-01   -0.41063E+00    0.37313E+00
    0.18169E-01   -0.43250E+00    0.29820E+00
   -0.55615E-01   -0.42861E+00    0.30144E+00
   -0.10347E+00   -0.48918E+00    0.31957E+00
   -0.13591E+00   -0.42180E+00    0.27936E+00
   -0.59517E-01   -0.49645E+00    0.22739E+00
   -0.14996E-01   -0.43383E+00    0.36643E+00
    0.87418E-01   -0.29870E+00    0.43035E+00
    0.30740E+00   -0.25741E+00    0.11325E+00
    0.27889E+00   -0.18336E+00    0.14675E+00
    0.35121E+00   -0.22492E+00    0.63552E-02
    0.34473E+00   -0.89217E-01    0.16914E+00
    0.36463E+00   -0.72165E-01    0.85010E-01
    0.37880E+00   -0.20018E+00    0.11727E+00
    0.41363E+00   -0.98943E-01    0.15687E+00
    0.41107E+00   -0.13282E+00    0.59427E-01
    0.34379E+00   -0.10127E+00    0.90774E-02
    0.33141E-01   -0.15784E+00    0.36657E+00
    0.28008E-01   -0.63625E-01    0.30791E+00
   -0.10458E-01   -0.63376E-01    0.37184E+00
   -0.92127E-01   -0.11938E+00    0.41301E+00
    0.72215E-01   -0.16151E+00    0.28947E+00
    0.20851E-01   -0.19099E+00    0.43637E+00
    0.14811E+00   -0.21548E+00    0.43646E+00
    0.14933E+00   -0.14773E+00    0.33550E+00
   -0.21745E+00    0.00000E+00    0.15589E+00
   -0.31894E+00    0.00000E+00    0.20576E+00
   -0.24092E+00    0.00000E+00    0.25021E+00
   -0.23714E+00   -0.33777E+00    0.50279E-01
   -0.34157E+00   -0.36515E+00    0.43010E-01
   -0.25971E+00   -0.42726E+00    0.41653E-01
   -0.29595E+00   -0.40301E+00    0.13477E+00
   -0.57670E-01   -0.39685E+00    0.23010E+00
   -0.27619E+00   -0.60325E-01    0.38665E+00
   -0.32712E+00   -0.72217E-01    0.50000E+00
   -0.30000E+00    0.00000E+00    0.50000E+00
   -0.35241E+00    0.00000E+00    0.41995E+00
    0.21041E-01   -0.41089E+00    0.59241E-01
   -0.69076E-01   -0.41611E+00    0.46504E-01
   -0.53329E-01   -0.38957E+00    0.43793E+00
   -0.97545E-01   -0.49039E+00    0.50000E+00
   -0.14756E+00   -0.47773E+00    0.41027E+00
   -0.11680E+00   -0.39061E+00    0.50000E+00
   -0.22738E+00   -0.34360E+00    0.50000E+00
   -0.23140E+00   -0.37129E+00    0.39556E+00
   -0.23869E+00   -0.43935E+00    0.40990E+00
   -0.19773E+00   -0.45924E+00    0.31937E+00
   -0.19134E+00   -0.46194E+00    0.50000E+00
   -0.32228E+00    0.00000E+00    0.12271E-02
   -0.23230E+00    0.00000E+00    0.49332E-01
   -0.23272E+00    0.00000E+00   -0.47827E-01
   -0.39880E+00   -0.30159E+00    0.22733E+00
   -0.32977E+00   -0.37583E+00    0.22709E+00
   -0.36084E+00   -0.34612E+00    0.31903E+00
    0.21602E+00   -0.34769E+00   -0.22108E+00
    0.18938E+00   -0.35681E+00   -0.13562E+00
    0.16415E+00   -0.27387E+00   -0.13877E+00
    0.16286E+00   -0.37296E+00   -0.58914E-01
    0.23535E+00   -0.33890E+00   -0.60808E-01
   -0.19922E+00   -0.77445E-01    0.39974E+00
   -0.25230E+00    0.00000E+00    0.41285E+00
   -0.24688E+00   -0.77773E-01    0.50000E+00
   -0.20000E+00    0.00000E+00    0.50000E+00
    0.78181E-01   -0.29220E+00   -0.13152E+00
    0.10565E+00   -0.38144E+00    0.43967E+00
    0.97545E-01   -0.49039E+00    0.50000E+00
   -0.51273E-01   -0.49736E+00    0.41005E+00
    0.47442E-01   -0.49774E+00    0.41014E+00
   -0.91849E-16   -0.50000E+00    0.50000E+00
   -0.36833E+00   -0.24232E+00   -0.42149E+00
   -0.34947E+00   -0.16947E+00   -0.43570E+00
   -0.32609E+00   -0.25521E+00   -0.50000E+00
   -0.29767E+00   -0.21260E+00   -0.37945E+00
   -0.29764E+00   -0.28578E+00   -0.44127E+00
   -0.36510E+00   -0.20247E+00   -0.32203E+00
   -0.42000E+00   -0.27129E+00   -0.32063E+00
    0.37019E+00   -0.24193E+00    0.42426E+00
    0.30347E+00   -0.28826E+00    0.37863E+00
    0.36575E+00   -0.20097E+00    0.31852E+00
    0.42111E+00   -0.26957E+00    0.31592E+00
    0.44521E+00   -0.22757E+00    0.40737E+00
    0.35054E+00   -0.16804E+00    0.43439E+00
    0.29690E+00   -0.28371E+00    0.44130E+00
    0.32609E+00   -0.25521E+00    0.50000E+00
    0.39087E+00   -0.17966E+00    0.50000E+00
   -0.29989E+00   -0.15079E+00   -0.31195E+00
   -0.30208E+00   -0.56516E-01   -0.37545E+00
   -0.30678E+00   -0.11053E+00   -0.43685E+00
    0.59258E-01    0.00000E+00    0.54625E-01
    0.14874E+00    0.00000E+00   -0.84497E-03
    0.58393E-01    0.00000E+00   -0.56089E-01
   -0.21462E+00   -0.61511E-01   -0.37162E+00
   -0.19198E+00   -0.10900E+00   -0.43767E+00
   -0.22183E+00   -0.22244E+00   -0.43229E+00
   -0.16591E+00   -0.37206E+00    0.49704E-01
   -0.15011E+00    0.00000E+00    0.41339E+00
   -0.20161E+00    0.00000E+00    0.32743E+00
   -0.18923E+00   -0.26564E+00   -0.35380E-01
   -0.27557E+00   -0.31105E+00   -0.56639E-01
   -0.20818E+00   -0.35398E+00   -0.57384E-01
   -0.20839E+00   -0.25475E+00    0.36027E-01
   -0.11990E+00   -0.58468E-01    0.35617E+00
   -0.10051E+00    0.00000E+00    0.32763E+00
    0.32216E+00   -0.26461E+00   -0.31367E+00
    0.29204E+00   -0.16218E+00   -0.27336E+00
   -0.49711E-01    0.00000E+00    0.41344E+00
    0.23273E+00    0.00000E+00   -0.49184E-01
    0.15280E+00    0.00000E+00   -0.83472E-01
    0.41975E+00   -0.97969E-01    0.44462E+00
    0.42176E+00   -0.11416E+00    0.35222E+00
    0.48389E+00   -0.12591E+00    0.40506E+00
    0.25723E+00   -0.42875E+00   -0.54799E-01
    0.20367E+00   -0.45664E+00   -0.14461E+00
    0.28960E+00   -0.40759E+00   -0.14756E+00
   -0.24713E+00   -0.24996E+00   -0.30837E+00
   -0.16584E+00   -0.62668E-01   -0.23459E+00
   -0.11847E+00   -0.11413E+00   -0.41342E+00
   -0.39857E+00   -0.14640E+00   -0.25654E+00
   -0.27332E+00   -0.18218E+00   -0.24592E+00
   -0.34666E+00   -0.10727E+00   -0.21042E+00
   -0.10250E+00   -0.98452E-01   -0.15233E+00
   -0.35252E+00   -0.23148E+00   -0.23033E+00
   -0.32621E+00   -0.25863E+00   -0.30439E+00
   -0.23143E+00   -0.95742E-01   -0.30314E+00
   -0.27787E+00   -0.75536E-01   -0.24406E+00
   -0.57917E-01    0.00000E+00   -0.55653E-01
   -0.15262E+00    0.00000E+00   -0.82419E-01
   -0.57231E-01    0.00000E+00    0.54992E-01
   -0.15194E+00    0.00000E+00    0.82837E-01
   -0.16813E+00   -0.75637E-01   -0.62530E-02
    0.33895E+00   -0.79616E-01   -0.96371E-01
    0.38995E+00   -0.18865E+00   -0.14205E+00
    0.37381E+00   -0.15283E+00   -0.55715E-01
    0.41849E+00   -0.11762E+00   -0.12853E+00
    0.27744E+00   -0.65547E-01   -0.24255E+00
    0.22773E+00   -0.91731E-01   -0.30526E+00
    0.15478E+00   -0.71747E-01   -0.22358E+00
    0.20654E+00   -0.77712E-01   -0.39254E+00
    0.29084E+00   -0.59614E-01   -0.38017E+00
    0.12511E+00   -0.57954E-01   -0.34707E+00
    0.25532E+00   -0.11366E+00   -0.44119E+00
   -0.27122E+00   -0.19391E+00   -0.13954E+00
   -0.21664E+00   -0.24924E+00   -0.11763E+00
   -0.30990E+00   -0.28074E+00   -0.12802E+00
   -0.41786E+00   -0.27457E+00   -0.13853E+00
   -0.35172E+00   -0.35538E+00   -0.14015E+00
   -0.38382E+00   -0.32044E+00   -0.47915E-01
    0.26785E+00   -0.28801E+00    0.44482E-01
    0.20418E+00   -0.34900E+00    0.43957E-01
    0.83172E-01   -0.49303E+00    0.13408E+00
    0.13819E+00   -0.48053E+00    0.22651E+00
    0.39751E-01   -0.49842E+00    0.22716E+00
    0.24804E+00   -0.33003E+00    0.12012E+00
   -0.19409E-01   -0.95023E-01    0.17003E+00
    0.17867E+00   -0.17479E+00    0.23519E+00
   -0.14162E-02   -0.11475E+00    0.44189E+00
    0.50203E-01   -0.86163E-01    0.50000E+00
   -0.52860E-01   -0.87706E-01    0.50000E+00
   -0.22503E-02   -0.17120E+00    0.50000E+00
    0.20879E+00   -0.35431E+00    0.21650E+00
    0.27315E+00   -0.17331E+00    0.31041E+00
   -0.33917E+00   -0.13239E+00    0.41486E+00
   -0.40751E+00   -0.16023E+00    0.41011E+00
   -0.31750E+00   -0.22063E+00    0.44052E+00
   -0.37591E+00   -0.20287E+00    0.50000E+00
   -0.43145E+00   -0.60022E-01    0.43763E+00
   -0.39254E+00   -0.55039E-01    0.38633E+00
   -0.35090E+00   -0.89098E-01    0.31767E+00
    0.37635E+00   -0.14584E+00   -0.23931E+00
    0.35283E+00   -0.90496E-01   -0.18779E+00
    0.31151E+00   -0.39110E+00    0.33993E-01
    0.27341E+00   -0.41862E+00    0.13036E+00
    0.22110E+00   -0.44846E+00    0.38552E-01
    0.28887E+00   -0.30477E+00   -0.23912E+00
   -0.72510E-01   -0.66298E-01    0.30758E+00
   -0.23849E+00   -0.36639E+00   -0.37652E+00
   -0.15715E+00   -0.38425E+00   -0.50000E+00
   -0.23587E+00   -0.44087E+00   -0.41262E+00
   -0.27779E+00   -0.41573E+00   -0.50000E+00
   -0.16386E-01   -0.49973E+00    0.13445E+00
    0.25357E-01   -0.49936E+00    0.40453E-01
    0.33308E+00    0.00000E+00   -0.41977E+00
    0.32712E+00   -0.72217E-01   -0.50000E+00
    0.30000E+00    0.00000E+00   -0.50000E+00
    0.40000E+00    0.00000E+00   -0.50000E+00
    0.41666E+00   -0.58959E-01    0.27957E+00
    0.49492E+00   -0.71126E-01    0.30766E+00
   -0.25604E+00   -0.34393E+00    0.31747E+00
    0.49536E-01   -0.49754E+00   -0.41304E+00
    0.38038E-01   -0.42510E+00   -0.50000E+00
    0.97545E-01   -0.49039E+00   -0.50000E+00
    0.30616E-16   -0.50000E+00   -0.50000E+00
    0.21903E-01   -0.96274E-01   -0.16227E+00
   -0.51267E-02   -0.49997E+00    0.31959E+00
    0.56008E-01   -0.33499E+00   -0.37007E+00
    0.51973E-01   -0.43174E+00   -0.30350E+00
    0.54195E-01   -0.39761E+00   -0.23596E+00
    0.31889E+00    0.00000E+00   -0.10284E+00
    0.21709E+00    0.00000E+00   -0.15573E+00
    0.12329E+00   -0.41660E+00   -0.30388E+00
    0.10468E+00   -0.42203E+00   -0.37480E+00
    0.13121E+00   -0.38125E+00   -0.23635E+00
    0.19470E+00   -0.39982E+00   -0.44237E+00
    0.23635E+00   -0.44061E+00   -0.41310E+00
    0.19134E+00   -0.46194E+00   -0.50000E+00
    0.27779E+00   -0.41573E+00   -0.50000E+00
    0.31908E+00   -0.38495E+00   -0.41268E+00
    0.78281E-01   -0.39934E+00   -0.44357E+00
    0.11680E+00   -0.39061E+00   -0.50000E+00
    0.14569E+00   -0.47830E+00   -0.41308E+00
   -0.20871E+00   -0.45436E+00    0.13471E+00
   -0.24704E+00   -0.43471E+00    0.22741E+00
    0.35215E+00   -0.22730E+00    0.22753E+00
    0.27171E+00   -0.18782E+00    0.22142E+00
    0.38149E+00   -0.15326E+00    0.23768E+00
    0.30537E+00   -0.26123E+00    0.29708E+00
    0.24581E+00   -0.20667E+00    0.40760E+00
   -0.11472E+00   -0.48666E+00    0.13457E+00
   -0.16960E+00   -0.47036E+00    0.40951E-01
   -0.73644E-01   -0.49455E+00    0.40615E-01
    0.50000E+00    0.00000E+00    0.40000E+00
   -0.29262E-01   -0.89547E-01    0.23455E+00
    0.25037E-01   -0.40842E+00   -0.15192E+00
   -0.20009E-01   -0.41707E+00   -0.39822E-01
   -0.15644E+00   -0.47490E+00    0.22722E+00
   -0.41548E+00   -0.61437E-01   -0.29986E+00
   -0.41096E+00    0.00000E+00   -0.25376E+00
   -0.41888E+00    0.00000E+00   -0.35377E+00
   -0.42864E+00   -0.11599E+00   -0.35162E+00
   -0.34975E+00   -0.92090E-01   -0.31695E+00
   -0.31913E-01   -0.49898E+00   -0.51566E-01
   -0.31513E+00    0.00000E+00   -0.31639E+00
   -0.50000E+00    0.00000E+00   -0.30000E+00
   -0.49479E+00   -0.71996E-01   -0.30778E+00
   -0.21818E+00   -0.36001E+00   -0.21848E+00
   -0.67781E-01   -0.33079E+00   -0.36928E+00
   -0.12313E+00   -0.38748E+00   -0.23287E+00
    0.26609E+00   -0.94456E-01    0.24084E+00
    0.27571E+00   -0.30727E+00    0.20893E+00
    0.18062E-01   -0.30457E+00   -0.43678E+00
   -0.90693E-01   -0.30372E+00   -0.43269E+00
    0.15198E+00    0.00000E+00   -0.24292E+00
    0.23881E+00    0.00000E+00   -0.25066E+00
   -0.22521E-01   -0.19412E+00   -0.43538E+00
    0.14970E+00    0.00000E+00   -0.41349E+00
    0.49693E-01    0.00000E+00   -0.41341E+00
    0.10026E+00    0.00000E+00   -0.32740E+00
   -0.20033E+00   -0.29696E+00   -0.42563E+00
   -0.30579E-01   -0.15700E+00   -0.36503E+00
    0.12462E+00   -0.48422E+00    0.40051E-01
   -0.26348E+00   -0.20739E+00   -0.50140E-01
   -0.34512E+00   -0.23860E+00   -0.23077E-01
   -0.37064E+00   -0.15139E+00   -0.46756E-01
   -0.30172E+00   -0.28843E+00    0.51378E-01
   -0.24239E+00   -0.26656E+00    0.43152E+00
   -0.60887E-01   -0.41220E+00   -0.37589E+00
   -0.21080E-01   -0.43258E+00   -0.30357E+00
    0.21880E-02   -0.50000E+00   -0.32497E+00
    0.12769E-01   -0.43416E+00   -0.37020E+00
   -0.95682E-01   -0.49076E+00   -0.32488E+00
   -0.11236E+00   -0.41855E+00   -0.29976E+00
   -0.13991E+00   -0.39077E+00   -0.38421E+00
    0.18083E+00   -0.46615E+00    0.13305E+00
    0.17086E-01   -0.62771E-01   -0.37123E+00
   -0.27537E+00   -0.28926E+00   -0.23535E+00
   -0.24672E+00   -0.33193E+00   -0.12977E+00
   -0.41183E+00    0.00000E+00   -0.49765E-01
   -0.35744E+00   -0.82060E-01   -0.11067E+00
   -0.39508E+00   -0.69163E-01   -0.39065E-01
   -0.32017E+00    0.00000E+00   -0.10062E+00
   -0.41138E+00    0.00000E+00    0.51104E-01
   -0.43845E+00   -0.68312E-01    0.65376E-02
   -0.82699E-01   -0.38223E+00   -0.44278E+00
    0.87576E-01   -0.64067E-01    0.37068E+00
    0.33802E+00   -0.36843E+00   -0.60865E-01
   -0.14759E+00    0.00000E+00    0.44637E-04
   -0.12250E+00   -0.28751E+00    0.50000E+00
    0.16643E+00   -0.81642E-01    0.21673E+00
   -0.15195E-01   -0.42039E+00   -0.43770E+00
   -0.24581E+00   -0.23506E+00   -0.50000E+00
   -0.25300E+00   -0.31801E+00   -0.50000E+00
    0.30587E+00   -0.53409E-01    0.39125E+00
    0.24023E+00   -0.86925E-01    0.32549E+00
    0.34215E+00   -0.88617E-01    0.31483E+00
    0.30153E+00   -0.10961E+00    0.43956E+00
    0.18939E+00   -0.12764E+00    0.43482E+00
   -0.30352E+00   -0.28888E+00   -0.38327E+00
   -0.29535E+00   -0.16830E+00   -0.50000E+00
   -0.10465E+00    0.00000E+00    0.15466E+00
    0.14383E-02    0.00000E+00    0.15002E+00
    0.93564E-01   -0.49117E+00    0.31931E+00
   -0.25384E+00    0.00000E+00   -0.41213E+00
   -0.35329E+00    0.00000E+00   -0.41911E+00
    0.17386E+00   -0.31020E+00    0.43083E+00
    0.52932E-01    0.00000E+00    0.24061E+00
    0.37745E+00   -0.15780E+00   -0.44485E+00
    0.29628E+00   -0.15919E+00   -0.50000E+00
    0.20463E+00   -0.14668E+00   -0.50000E+00
   -0.48467E+00   -0.12287E+00   -0.22263E+00
   -0.50000E+00    0.00000E+00   -0.20000E+00
   -0.41114E+00    0.00000E+00   -0.15094E+00
   -0.32018E+00    0.00000E+00   -0.20386E+00
    0.35408E+00   -0.22894E+00   -0.96851E-01
    0.29920E+00   -0.29546E+00   -0.50235E-01
   -0.10892E+00   -0.40012E+00   -0.41368E-01
   -0.72294E-01   -0.40668E+00   -0.16767E+00
    0.35362E+00   -0.22948E+00   -0.24115E+00
    0.71827E-01   -0.41299E+00   -0.32030E-01
    0.11405E+00   -0.99840E-01    0.42060E+00
    0.20120E+00   -0.58468E-01    0.38445E+00
    0.67670E-01   -0.49540E+00   -0.51589E-01
   -0.20043E+00   -0.16812E+00   -0.50000E+00
   -0.15419E+00   -0.26565E+00   -0.50000E+00
   -0.18755E+00   -0.16275E+00    0.43607E+00
   -0.33630E+00   -0.27640E+00    0.37850E+00
   -0.38765E+00   -0.58975E-01   -0.38891E+00
   -0.35477E+00   -0.88272E-01   -0.50000E+00
    0.70392E-01   -0.75499E-01   -0.30696E+00
    0.43136E-01   -0.24524E+00   -0.50000E+00
    0.34741E+00   -0.91958E-01   -0.31799E+00
    0.29535E+00   -0.16830E+00    0.50000E+00
    0.20043E+00   -0.16812E+00    0.50000E+00
   -0.15312E+00   -0.39728E+00   -0.10855E+00
   -0.50000E+00    0.00000E+00   -0.50000E+00
   -0.49039E+00   -0.97545E-01   -0.50000E+00
   -0.43443E+00    0.00000E+00   -0.43458E+00
   -0.50000E+00    0.00000E+00   -0.40000E+00
    0.23238E+00   -0.44272E+00    0.22511E+00
   -0.97545E-01   -0.49039E+00   -0.50000E+00
   -0.45740E-01   -0.41045E+00   -0.50000E+00
   -0.48573E-01   -0.49764E+00   -0.41300E+00
   -0.15307E+00   -0.83098E-01    0.50000E+00
   -0.20463E+00   -0.14668E+00    0.50000E+00
   -0.11326E+00   -0.17971E+00    0.50000E+00
   -0.14492E+00   -0.47854E+00   -0.41290E+00
    0.15163E+00    0.00000E+00    0.41288E+00
    0.10234E+00    0.00000E+00    0.32687E+00
   -0.83444E-01   -0.66095E-01   -0.37153E+00
    0.14321E-02   -0.11475E+00   -0.44185E+00
   -0.10228E+00    0.00000E+00   -0.32677E+00
    0.20000E+00    0.00000E+00    0.50000E+00
    0.25093E+00   -0.84712E-01    0.50000E+00
    0.25383E+00    0.00000E+00    0.41214E+00
   -0.36889E+00   -0.20483E+00   -0.11764E+00
    0.35355E+00   -0.35355E+00    0.50000E+00
    0.25300E+00   -0.31801E+00    0.50000E+00
    0.32019E+00    0.00000E+00    0.20394E+00
    0.41093E+00    0.00000E+00    0.25376E+00
    0.31511E+00    0.00000E+00    0.31640E+00
    0.50000E+00    0.00000E+00    0.30000E+00
    0.50000E+00    0.00000E+00    0.20000E+00
    0.35477E+00   -0.88272E-01    0.50000E+00
    0.49039E+00   -0.97545E-01    0.50000E+00
    0.40000E+00    0.00000E+00    0.50000E+00
    0.46194E+00   -0.19134E+00    0.50000E+00
   -0.48722E+00   -0.11232E+00   -0.43700E-01
   -0.50000E+00    0.00000E+00    0.00000E+00
   -0.50000E+00    0.00000E+00    0.10000E+00
    0.42647E+00   -0.62287E-01    0.35218E-02
    0.48689E+00   -0.11373E+00   -0.47500E-01
    0.50000E+00    0.00000E+00   -0.10000E+00
    0.41105E+00    0.00000E+00   -0.51319E-01
    0.50000E+00    0.00000E+00    0.00000E+00
    0.49078E+00   -0.95577E-01    0.58202E-01
    0.32221E+00    0.00000E+00   -0.83534E-03
    0.41167E+00    0.00000E+00    0.49702E-01
   -0.39194E+00   -0.12102E+00    0.50000E+00
   -0.48404E+00   -0.12531E+00    0.40554E+00
   -0.50000E+00    0.00000E+00    0.50000E+00
   -0.50000E+00    0.00000E+00    0.40000E+00
   -0.49039E+00   -0.97545E-01    0.50000E+00
   -0.40000E+00    0.00000E+00    0.50000E+00
   -0.43407E+00    0.00000E+00    0.43489E+00
   -0.41028E+00    0.00000E+00    0.25486E+00
   -0.48640E+00   -0.11582E+00    0.22494E+00
   -0.45157E+00   -0.21468E+00    0.22784E+00
   -0.41046E+00    0.00000E+00    0.15226E+00
   -0.50000E+00    0.00000E+00    0.20000E+00
   -0.49451E+00   -0.73924E-01    0.14620E+00
    0.42129E+00   -0.74810E-01   -0.24930E+00
    0.40766E+00    0.00000E+00   -0.25739E+00
    0.40830E+00    0.00000E+00   -0.36600E+00
    0.49488E+00   -0.71340E-01   -0.30819E+00
    0.46839E+00   -0.17495E+00   -0.31814E+00
    0.50000E+00    0.00000E+00   -0.20000E+00
    0.50000E+00    0.00000E+00   -0.30000E+00
    0.48506E+00   -0.12132E+00   -0.22521E+00
    0.50000E+00    0.00000E+00    0.50000E+00
    0.46798E+00   -0.17606E+00   -0.14130E+00
    0.40965E+00    0.00000E+00   -0.15295E+00
    0.39485E+00   -0.30675E+00    0.20908E-01
    0.47098E+00   -0.16785E+00    0.13552E+00
    0.44842E+00   -0.22118E+00    0.22370E+00
    0.48560E+00   -0.11914E+00    0.22272E+00
    0.41107E+00    0.00000E+00    0.15093E+00
    0.49399E+00   -0.77274E-01    0.14434E+00
   -0.48377E+00   -0.12634E+00   -0.40568E+00
   -0.44647E+00   -0.22509E+00   -0.22717E+00
    0.50726E-01    0.00000E+00    0.41323E+00
    0.24215E+00   -0.43745E+00   -0.23624E+00
    0.10000E+00    0.00000E+00    0.50000E+00
    0.15123E+00   -0.84878E-01    0.50000E+00
   -0.27779E+00   -0.41573E+00    0.50000E+00
   -0.50306E-01    0.00000E+00    0.24090E+00
    0.32023E+00    0.00000E+00    0.10087E+00
    0.45777E+00   -0.20111E+00    0.38120E-01
    0.46841E+00   -0.17490E+00    0.31482E+00
   -0.46933E+00   -0.17243E+00    0.31625E+00
    0.35717E+00   -0.34990E+00    0.12522E+00
    0.42471E+00   -0.26386E+00    0.12636E+00
    0.39193E+00   -0.31047E+00    0.22169E+00
   -0.31363E+00    0.00000E+00    0.31782E+00
    0.24858E+00    0.00000E+00   -0.41331E+00
    0.19963E+00    0.00000E+00   -0.32794E+00
    0.42327E+00   -0.68939E-01   -0.41877E+00
    0.30791E+00    0.00000E+00   -0.32009E+00
   -0.41796E+00    0.00000E+00    0.35452E+00
    0.42280E+00   -0.26691E+00   -0.15100E+00
    0.44807E+00   -0.22188E+00   -0.23339E+00
    0.21681E-01   -0.33462E+00   -0.50000E+00
    0.22503E-02   -0.17120E+00   -0.50000E+00
    0.00000E+00    0.00000E+00    0.50000E+00
    0.10027E+00   -0.17168E+00    0.50000E+00
   -0.10027E+00   -0.17168E+00   -0.50000E+00
   -0.50203E-01   -0.86163E-01   -0.50000E+00
   -0.40000E+00    0.00000E+00   -0.50000E+00
   -0.25093E+00   -0.84712E-01   -0.50000E+00
   -0.30000E+00    0.00000E+00   -0.50000E+00
    0.30000E+00    0.00000E+00    0.50000E+00
    0.93032E-03    0.00000E+00    0.32718E+00
   -0.21864E+00    0.00000E+00   -0.15424E+00
   -0.76399E-01   -0.32957E+00   -0.50000E+00
   -0.12964E+00   -0.48290E+00   -0.51308E-01
   -0.43538E-01   -0.49810E+00   -0.23487E+00
   -0.18449E+00   -0.39445E+00   -0.30183E+00
   -0.19017E+00   -0.46242E+00   -0.32456E+00
   -0.14045E+00   -0.47987E+00   -0.23465E+00
    0.40266E+00   -0.15325E+00   -0.37266E+00
    0.33786E+00   -0.26603E+00   -0.38364E+00
    0.44527E+00   -0.22745E+00   -0.40997E+00
    0.48388E+00   -0.12594E+00   -0.40605E+00
    0.46194E+00   -0.19134E+00   -0.50000E+00
    0.36524E+00   -0.20106E+00   -0.32444E+00
    0.42136E+00   -0.26918E+00   -0.32326E+00
   -0.49511E+00   -0.69784E-01    0.30799E+00
   -0.44573E+00   -0.22655E+00    0.40845E+00
   -0.42347E+00   -0.26585E+00    0.31863E+00
   -0.46194E+00   -0.19134E+00    0.50000E+00
   -0.27789E+00   -0.41566E+00   -0.32369E+00
   -0.35537E+00   -0.35172E+00   -0.32232E+00
   -0.31809E+00   -0.38577E+00   -0.41237E+00
   -0.10000E+00    0.00000E+00    0.50000E+00
   -0.39027E+00   -0.31255E+00    0.40975E+00
    0.27779E+00   -0.41573E+00    0.50000E+00
    0.31847E+00   -0.38545E+00    0.40933E+00
    0.35672E+00   -0.35035E+00    0.31590E+00
    0.24688E+00   -0.77773E-01   -0.50000E+00
    0.28118E+00   -0.41344E+00   -0.32541E+00
    0.38931E+00   -0.31375E+00    0.40816E+00
    0.41573E+00   -0.27779E+00    0.50000E+00
    0.39194E+00   -0.12102E+00   -0.50000E+00
   -0.32037E+00   -0.38388E+00    0.41011E+00
   -0.21312E+00   -0.22996E+00    0.50000E+00
   -0.28433E+00   -0.41129E+00    0.31941E+00
    0.35793E+00   -0.34913E+00   -0.32538E+00
   -0.15163E+00    0.00000E+00   -0.41288E+00
   -0.25443E+00   -0.10843E+00    0.43974E+00
   -0.31379E+00   -0.26190E+00    0.50000E+00
   -0.41573E+00   -0.27779E+00    0.50000E+00
   -0.18269E+00   -0.46543E+00   -0.14355E+00
   -0.22287E+00   -0.44758E+00   -0.50764E-01
   -0.20000E+00    0.00000E+00   -0.50000E+00
   -0.46786E+00   -0.17637E+00   -0.31649E+00
   -0.83433E-03    0.00000E+00   -0.32689E+00
    0.50720E-01    0.00000E+00   -0.24067E+00
    0.31693E+00    0.00000E+00   -0.20667E+00
   -0.46740E+00   -0.17759E+00   -0.13530E+00
   -0.41573E+00   -0.27779E+00   -0.50000E+00
    0.15307E+00   -0.83098E-01   -0.50000E+00
    0.52860E-01   -0.87706E-01   -0.50000E+00
   -0.37089E+00   -0.33533E+00    0.13542E+00
   -0.87607E-01   -0.49227E+00   -0.14394E+00
   -0.44013E-01   -0.25316E+00   -0.50000E+00
    0.10000E+00    0.00000E+00   -0.50000E+00
   -0.44465E+00   -0.22867E+00   -0.45773E-01
   -0.38892E+00   -0.31424E+00   -0.41107E+00
    0.24581E+00   -0.23506E+00    0.50000E+00
    0.00000E+00    0.00000E+00   -0.50000E+00
   -0.50727E-01    0.00000E+00   -0.41322E+00
   -0.10000E+00    0.00000E+00   -0.50000E+00
    0.49309E+00   -0.82831E-01   -0.14198E+00
    0.44425E+00   -0.22944E+00   -0.57294E-01
   -0.52302E-01    0.00000E+00   -0.24034E+00
   -0.31629E+00   -0.38725E+00   -0.23320E+00
    0.19398E+00   -0.46084E+00   -0.32509E+00
   -0.38890E+00   -0.31425E+00   -0.23046E+00
    0.35355E+00   -0.35355E+00   -0.50000E+00
    0.62566E-03    0.00000E+00   -0.53120E-03
   -0.29628E+00   -0.15919E+00    0.50000E+00
    0.76399E-01   -0.32957E+00    0.50000E+00
    0.39586E+00   -0.30544E+00   -0.78023E-01
    0.50000E+00    0.00000E+00   -0.40000E+00
    0.36251E+00   -0.34437E+00   -0.15325E+00
    0.39328E+00   -0.30876E+00   -0.23786E+00
   -0.15123E+00   -0.84878E-01   -0.50000E+00
   -0.20356E+00    0.00000E+00   -0.32612E+00
    0.99902E-01   -0.48992E+00   -0.32497E+00
   -0.15262E+00    0.00000E+00    0.24305E+00
    0.23329E+00    0.00000E+00    0.47787E-01
    0.21910E+00    0.00000E+00    0.15431E+00
   -0.24274E+00    0.00000E+00   -0.24837E+00
    0.16553E+00   -0.47180E+00   -0.52405E-01
    0.50000E+00    0.00000E+00    0.10000E+00
   -0.28484E-03    0.00000E+00   -0.15059E+00
   -0.35355E+00   -0.35355E+00    0.50000E+00
   -0.27163E+00   -0.41978E+00   -0.14230E+00
   -0.50000E+00    0.00000E+00    0.30000E+00
    0.10511E+00    0.00000E+00   -0.15491E+00
   -0.41073E+00   -0.28514E+00    0.44209E-01
    0.49039E+00   -0.97545E-01   -0.50000E+00
    0.44013E-01   -0.25316E+00    0.50000E+00
    0.31854E+00   -0.38540E+00    0.22288E+00
    0.15419E+00   -0.26565E+00    0.50000E+00
   -0.35355E+00   -0.35355E+00   -0.50000E+00
    0.50000E+00    0.00000E+00   -0.50000E+00
    0.10830E-01   -0.49988E+00   -0.14397E+00
   -0.15456E+00    0.00000E+00   -0.24172E+00
   -0.10622E+00    0.00000E+00   -0.15442E+00
   -0.23245E+00   -0.44268E+00   -0.23417E+00
    0.15354E+00    0.00000E+00    0.81994E-01
    0.32330E+00   -0.38142E+00   -0.23817E+00
   -0.30824E+00   -0.39369E+00   -0.49789E-01
   -0.19134E+00   -0.46194E+00   -0.50000E+00
    0.19134E+00   -0.46194E+00    0.50000E+00
    0.20000E+00    0.00000E+00   -0.50000E+00
    0.26379E-01    0.63402E-01   -0.30786E+00
   -0.52249E-01    0.30051E+00   -0.32256E-01
    0.19986E-01    0.20517E+00   -0.38214E-01
   -0.47490E-01    0.20665E+00   -0.10940E+00
    0.23966E-01    0.32640E+00   -0.37795E-01
    0.11577E+00    0.29791E+00   -0.19172E-01
    0.83921E-01    0.24649E+00    0.33279E-01
    0.11607E+00    0.18279E+00   -0.46317E-01
    0.40267E-01    0.30214E+00   -0.12034E+00
   -0.76042E-01    0.28885E+00   -0.12608E+00
   -0.74550E-02    0.30804E+00    0.37096E-01
    0.56713E-01    0.21503E+00   -0.10705E+00
   -0.20745E+00    0.14415E+00   -0.88528E-01
   -0.25989E+00    0.71878E-01   -0.46617E-01
   -0.23810E+00    0.10148E+00   -0.14934E+00
   -0.17137E+00    0.65999E-01   -0.60879E-01
   -0.88706E-01    0.20068E+00   -0.24221E+00
   -0.34538E-01    0.17764E+00   -0.31619E+00
   -0.15110E+00    0.22301E+00   -0.31363E+00
   -0.12230E+00    0.27505E+00   -0.34994E+00
   -0.10623E+00    0.21945E+00   -0.42529E+00
   -0.27220E-01    0.24194E+00   -0.36570E+00
   -0.25535E+00    0.20548E+00   -0.35903E+00
   -0.21102E+00    0.25758E+00   -0.28375E+00
   -0.22855E+00    0.26820E+00   -0.41523E+00
   -0.12202E+00    0.32766E+00   -0.29145E+00
   -0.14623E+00    0.29026E+00   -0.22628E+00
   -0.17644E+00    0.13233E+00   -0.33601E+00
   -0.19247E+00    0.17235E+00   -0.25521E+00
   -0.59668E-01    0.31165E+00   -0.26297E+00
    0.28937E+00    0.16907E+00    0.22973E+00
    0.29974E+00    0.14810E+00    0.31405E+00
    0.23342E+00    0.95166E-01    0.30418E+00
    0.27102E+00    0.63782E-01    0.22119E+00
    0.40331E+00    0.14906E+00    0.25895E+00
    0.35468E+00    0.22958E+00    0.24057E+00
    0.38436E+00    0.19839E+00    0.14534E+00
    0.27993E+00    0.19022E+00    0.14178E+00
    0.34479E+00    0.10390E+00    0.21535E+00
    0.24293E+00    0.10234E+00    0.14985E+00
    0.18397E+00    0.39394E+00   -0.29561E+00
    0.18923E+00    0.46281E+00   -0.31857E+00
    0.13819E+00    0.48053E+00   -0.22651E+00
    0.23238E+00    0.44272E+00   -0.22511E+00
   -0.23705E-01    0.24567E+00    0.36822E+00
    0.24413E-01    0.17028E+00    0.30464E+00
    0.56563E-01    0.12948E+00    0.36793E+00
   -0.61669E-01    0.15697E+00    0.36605E+00
   -0.87380E-01    0.25629E+00    0.37339E+00
   -0.10057E+00    0.29696E+00    0.43446E+00
   -0.62440E-01    0.33392E+00    0.35926E+00
   -0.70621E-01    0.18998E+00    0.43637E+00
   -0.43630E-01    0.25251E+00    0.50000E+00
    0.75436E-01    0.25060E+00    0.36792E+00
    0.11907E-01    0.25757E+00    0.28963E+00
    0.27326E-01    0.34543E+00    0.35366E+00
    0.34344E-01    0.19499E+00    0.43994E+00
    0.22281E+00    0.24552E+00    0.11631E+00
    0.20073E+00    0.19605E+00    0.18787E+00
    0.20437E+00    0.29239E+00    0.17943E+00
    0.28915E+00    0.29981E+00    0.23703E+00
    0.22789E+00    0.24909E+00    0.28598E+00
    0.14565E+00    0.25744E+00    0.24344E+00
    0.13167E+00    0.38136E+00    0.23634E+00
    0.63171E-01    0.29625E+00    0.16845E+00
    0.20817E+00    0.34777E+00    0.23956E+00
    0.36755E-01    0.32813E+00   -0.30081E+00
   -0.61139E-01    0.40284E+00   -0.22268E+00
   -0.47763E-01    0.42204E+00   -0.29714E+00
   -0.87165E-02    0.31260E+00   -0.21089E+00
   -0.94382E-01    0.40034E+00   -0.16977E+00
   -0.13753E+00    0.37463E+00   -0.22068E+00
   -0.37636E-01    0.34856E+00    0.10106E+00
    0.61036E-01    0.34974E+00    0.90763E-01
   -0.26187E-01    0.41206E+00    0.47098E-01
   -0.99829E-01    0.41178E+00    0.37893E-01
   -0.89156E-01    0.40867E+00    0.15759E+00
   -0.98518E-01    0.30424E+00    0.55144E-01
   -0.14173E+00    0.28314E+00    0.14804E+00
   -0.17655E+00    0.37072E+00    0.12800E+00
   -0.57771E-01    0.28358E+00    0.16055E+00
    0.14662E+00    0.28066E+00    0.84668E-01
    0.65151E-01    0.39660E+00    0.43773E+00
    0.11700E+00    0.39049E+00    0.50000E+00
    0.97545E-01    0.49039E+00    0.50000E+00
    0.38245E-01    0.42502E+00    0.50000E+00
    0.15230E-01    0.40406E+00    0.14578E+00
    0.62800E-01    0.40966E+00    0.32115E-01
    0.49488E+00    0.71340E-01    0.30819E+00
    0.98217E-01    0.38982E+00    0.16207E+00
   -0.98389E-01    0.22596E+00    0.29628E+00
   -0.73056E-01    0.13222E+00    0.28612E+00
   -0.18816E+00    0.16815E+00    0.26608E+00
   -0.78048E-01    0.18939E+00    0.23005E+00
   -0.12138E+00    0.30505E+00    0.21770E+00
   -0.96287E-01    0.32158E+00    0.30303E+00
   -0.15590E-01    0.31309E+00    0.25026E+00
   -0.17173E+00    0.30718E+00    0.28490E+00
   -0.15774E+00    0.25352E+00    0.36212E+00
    0.22768E+00    0.35863E+00   -0.38323E+00
    0.27833E+00    0.41537E+00   -0.31710E+00
    0.23575E+00    0.44093E+00   -0.40955E+00
    0.17294E-01    0.20700E+00    0.18117E+00
    0.10523E+00    0.32790E+00    0.30564E+00
    0.17346E+00    0.66856E-01   -0.22550E+00
    0.57034E-01    0.38115E+00    0.24480E+00
    0.16137E+00    0.37480E+00    0.59173E-01
    0.10748E+00    0.39009E+00   -0.38993E-01
    0.16553E+00    0.47180E+00    0.52405E-01
   -0.17830E+00    0.58379E-01   -0.29903E+00
   -0.40838E+00    0.12521E+00   -0.57580E-01
   -0.49157E+00    0.91438E-01   -0.61226E-01
   -0.46210E+00    0.19096E+00   -0.46519E-01
   -0.47350E+00    0.16063E+00   -0.14013E+00
    0.51332E-01    0.10844E+00    0.31446E-01
   -0.38984E+00    0.18579E+00   -0.14169E+00
   -0.43231E+00    0.25121E+00   -0.13618E+00
    0.20071E+00    0.36520E+00    0.14511E+00
    0.39663E-01    0.10080E+00   -0.68810E-01
   -0.24968E-01    0.11319E+00   -0.71124E-01
   -0.33030E+00    0.25662E+00   -0.30076E+00
   -0.39880E+00    0.30159E+00   -0.22733E+00
   -0.36084E+00    0.34612E+00   -0.31903E+00
   -0.42347E+00    0.26585E+00   -0.31863E+00
    0.11225E+00    0.13397E+00    0.27112E+00
    0.65060E-01    0.19161E+00    0.24358E+00
    0.10475E+00    0.84923E-01    0.17818E+00
   -0.30183E+00    0.28836E+00   -0.51297E-01
   -0.34157E+00    0.36515E+00   -0.43010E-01
   -0.37089E+00    0.33533E+00   -0.13542E+00
   -0.41073E+00    0.28514E+00   -0.44209E-01
    0.11816E+00    0.10024E+00    0.41955E+00
    0.15019E+00    0.19218E+00    0.36459E+00
    0.20301E+00    0.16726E+00    0.26431E+00
    0.17498E-01    0.88575E-01    0.22910E+00
    0.71042E-01    0.68851E-01    0.30538E+00
   -0.11665E+00    0.14371E+00   -0.58020E-01
   -0.16217E+00    0.20936E+00   -0.72647E-01
   -0.19576E+00    0.16239E+00    0.65491E-02
   -0.76515E-01    0.19082E+00    0.21826E-01
   -0.13563E+00    0.27947E+00   -0.50968E-01
   -0.91048E-01    0.75665E-01   -0.14022E+00
   -0.10177E+00    0.67204E-01   -0.13946E-01
    0.16970E+00    0.17386E+00    0.17110E-01
    0.13889E+00    0.28817E+00   -0.12833E+00
    0.12661E+00    0.19065E+00   -0.16112E+00
    0.22695E+00    0.22185E+00   -0.33977E-01
    0.19732E+00    0.17870E+00   -0.10523E+00
    0.12473E+00    0.19300E+00    0.12420E+00
    0.31821E+00    0.27304E+00    0.15011E+00
    0.32654E+00    0.25922E+00    0.30888E+00
    0.32678E+00    0.72674E-01    0.50000E+00
   -0.16075E+00    0.17105E+00   -0.14155E+00
   -0.24994E+00    0.22924E+00   -0.30281E-01
   -0.19173E+00    0.26148E+00    0.66837E-01
   -0.21220E+00    0.24910E+00   -0.13652E+00
   -0.34378E+00    0.24570E+00    0.20931E-01
   -0.38382E+00    0.32044E+00    0.47915E-01
   -0.44465E+00    0.22867E+00    0.45773E-01
    0.30266E+00    0.15201E+00   -0.12757E+00
    0.29749E+00    0.15129E+00   -0.27399E+00
    0.35180E+00    0.22910E+00   -0.22929E+00
    0.37872E+00    0.14440E+00   -0.23486E+00
    0.26938E+00    0.19534E+00   -0.22012E+00
    0.26054E+00    0.78526E-01   -0.22241E+00
    0.30458E+00    0.26113E+00   -0.29732E+00
    0.34809E+00    0.91935E-01   -0.32037E+00
    0.34610E+00    0.82107E-01   -0.18345E+00
    0.14217E+00    0.24734E+00   -0.30786E+00
    0.11937E+00    0.34119E+00   -0.32283E+00
    0.78623E-01    0.23226E+00   -0.36703E+00
    0.24447E+00    0.33223E+00   -0.29817E+00
    0.17353E+00    0.31003E+00   -0.43081E+00
    0.16614E+00    0.14259E+00   -0.33178E+00
    0.15328E+00    0.19739E+00   -0.43412E+00
    0.23108E+00    0.22916E+00   -0.36105E+00
    0.19521E+00    0.17396E+00   -0.22621E+00
   -0.19403E-01    0.20101E+00   -0.43221E+00
   -0.43231E-01    0.24472E+00   -0.50000E+00
   -0.11332E+00    0.17896E+00   -0.50000E+00
   -0.95116E-01    0.10323E+00   -0.42022E+00
    0.17388E+00    0.29995E+00    0.33712E+00
   -0.20669E+00    0.75550E-01   -0.38331E+00
   -0.31618E+00    0.15221E+00   -0.38187E+00
   -0.19916E+00    0.17065E+00   -0.42794E+00
   -0.69675E-01    0.70859E-01   -0.30441E+00
   -0.23472E+00    0.92785E-01   -0.30167E+00
   -0.14229E+00    0.85116E-01   -0.23218E+00
   -0.18499E+00    0.24713E+00    0.20992E+00
   -0.27550E+00    0.17846E+00    0.24289E+00
   -0.24151E+00    0.24626E+00    0.30737E+00
   -0.27489E+00    0.28929E+00    0.23569E+00
   -0.16806E+00    0.17986E+00    0.93563E-01
   -0.24628E+00    0.32956E+00    0.13153E+00
   -0.20530E+00    0.35087E+00    0.22701E+00
   -0.27570E+00    0.18783E+00    0.13840E+00
   -0.27124E+00    0.19966E+00    0.45450E-01
   -0.31050E+00    0.28237E+00    0.12571E+00
   -0.19609E-02    0.11411E+00   -0.44204E+00
   -0.24311E-02    0.17026E+00   -0.50000E+00
    0.66321E-01    0.18622E+00   -0.43737E+00
    0.49560E-01    0.85877E-01   -0.50000E+00
   -0.24902E+00    0.92842E-01    0.15276E+00
   -0.14678E+00    0.16286E+00    0.18482E+00
   -0.19173E+00    0.36710E+00   -0.29787E+00
   -0.24704E+00    0.43471E+00   -0.22741E+00
   -0.21877E+00    0.34744E+00   -0.21276E+00
    0.33390E-01    0.15593E+00   -0.37039E+00
   -0.23339E-01    0.30553E+00   -0.43460E+00
    0.43630E-01    0.25251E+00   -0.50000E+00
   -0.57377E-01    0.33684E+00   -0.36782E+00
    0.89594E-01    0.29883E+00   -0.43306E+00
   -0.16430E+00    0.80040E-01    0.11796E-01
   -0.10525E+00    0.11268E+00    0.15625E+00
   -0.16853E+00    0.71040E-01    0.11845E+00
   -0.67708E-01    0.19794E+00    0.11359E+00
   -0.29745E+00    0.15017E+00    0.31325E+00
   -0.32669E+00    0.25793E+00    0.30356E+00
   -0.24535E+00    0.32066E+00    0.30812E+00
   -0.29749E+00    0.21127E+00    0.38523E+00
   -0.28806E+00    0.29288E+00    0.38309E+00
    0.20471E+00    0.25636E+00    0.37276E-01
    0.23551E+00    0.33893E+00    0.60496E-01
    0.44815E+00    0.55638E-01   -0.29769E-02
    0.49078E+00    0.95577E-01   -0.58202E-01
    0.41065E+00    0.13287E+00   -0.60081E-01
    0.48689E+00    0.11373E+00    0.47500E-01
    0.36996E+00    0.24196E+00   -0.42425E+00
    0.42111E+00    0.26957E+00   -0.31592E+00
    0.44521E+00    0.22757E+00   -0.40737E+00
    0.38931E+00    0.31375E+00   -0.40816E+00
    0.24201E-01    0.19629E+00    0.87281E-01
   -0.28796E+00    0.16699E+00   -0.82105E-01
    0.19124E+00    0.16903E+00    0.92619E-01
    0.30646E-01    0.40515E+00   -0.61537E-01
   -0.28538E+00    0.28060E+00   -0.23080E+00
   -0.32977E+00    0.37583E+00   -0.22709E+00
   -0.22368E+00    0.37371E+00   -0.37599E+00
   -0.26807E+00    0.32723E+00   -0.32469E+00
   -0.28433E+00    0.41129E+00   -0.31941E+00
   -0.14614E+00    0.37442E+00   -0.36618E+00
   -0.19773E+00    0.45924E+00   -0.31937E+00
   -0.32304E+00    0.25067E+00   -0.13321E+00
    0.15324E+00    0.33559E+00    0.41006E+00
    0.17493E+00    0.36807E+00   -0.12262E+00
    0.22110E+00    0.44846E+00   -0.38552E-01
    0.27341E+00    0.41862E+00   -0.13036E+00
    0.18083E+00    0.46615E+00   -0.13305E+00
    0.29932E+00    0.29548E+00    0.50003E-01
    0.25198E+00    0.17442E+00    0.41020E-01
   -0.13526E+00    0.39263E+00    0.23003E+00
    0.25723E+00    0.42875E+00    0.54799E-01
    0.20367E+00    0.45664E+00    0.14461E+00
    0.28960E+00    0.40759E+00    0.14756E+00
   -0.20642E+00    0.35462E+00    0.53408E-01
    0.56851E-02    0.19332E+00   -0.18997E+00
    0.10532E+00    0.10029E+00   -0.15003E+00
    0.81920E-01    0.19694E+00   -0.23130E+00
   -0.14227E-01    0.11739E+00   -0.16341E+00
   -0.16686E-01    0.41904E+00    0.43924E+00
   -0.97545E-01    0.49039E+00    0.50000E+00
   -0.85724E-01    0.38367E+00    0.43845E+00
   -0.45483E-01    0.41038E+00    0.50000E+00
   -0.59824E-01    0.42149E+00    0.37218E+00
    0.41896E+00    0.15066E+00    0.37734E+00
    0.44527E+00    0.22745E+00    0.40997E+00
    0.48388E+00    0.12594E+00    0.40605E+00
    0.46839E+00    0.17495E+00    0.31814E+00
    0.22046E-01    0.33436E+00    0.50000E+00
    0.49536E-01    0.49754E+00    0.41304E+00
    0.12790E-01    0.43405E+00    0.37018E+00
    0.21563E+00    0.24852E+00   -0.11558E+00
    0.29328E+00    0.30620E+00   -0.23220E+00
    0.18624E+00    0.26345E+00   -0.23202E+00
    0.20670E+00    0.35392E+00   -0.48021E-01
    0.24787E+00    0.33000E+00   -0.12043E+00
    0.30278E+00    0.25678E+00   -0.11411E+00
    0.26950E+00    0.28759E+00   -0.47088E-01
   -0.17344E-01    0.43312E+00   -0.36603E+00
    0.15587E-01    0.42191E+00   -0.43399E+00
    0.62154E-01    0.41019E+00   -0.37310E+00
   -0.74176E-01    0.36694E+00   -0.43835E+00
   -0.89846E-01    0.42321E+00   -0.36518E+00
   -0.12621E+00    0.41554E+00   -0.29260E+00
   -0.41977E+00    0.11303E+00    0.13191E+00
   -0.35520E+00    0.84420E-01    0.11812E+00
   -0.19111E+00    0.10894E+00    0.43796E+00
   -0.25040E+00    0.84735E-01    0.50000E+00
   -0.15054E+00    0.84878E-01    0.50000E+00
   -0.48722E+00    0.11232E+00    0.43700E-01
   -0.49299E+00    0.83425E-01    0.13983E+00
   -0.39725E+00    0.61947E-01    0.36933E-01
   -0.33979E+00    0.95300E-01   -0.10176E-01
   -0.37365E+00    0.15042E+00    0.47057E-01
   -0.24198E+00    0.33417E+00   -0.48947E-01
   -0.14559E+00    0.20796E+00    0.43478E+00
   -0.26187E+00    0.19153E+00   -0.19029E+00
    0.22273E+00    0.40509E+00    0.43595E+00
    0.10680E+00    0.42545E+00    0.37329E+00
    0.19237E+00    0.39405E+00    0.33795E+00
    0.19768E-02    0.11411E+00    0.44208E+00
    0.53187E-01    0.86931E-01    0.50000E+00
    0.24311E-02    0.17026E+00    0.50000E+00
   -0.49560E-01    0.85877E-01    0.50000E+00
    0.14569E+00    0.47830E+00    0.41308E+00
    0.19134E+00    0.46194E+00    0.50000E+00
    0.27323E+00    0.36527E+00    0.37676E+00
    0.23635E+00    0.44061E+00    0.41310E+00
    0.12271E+00    0.28718E+00    0.50000E+00
    0.22742E+00    0.34345E+00    0.50000E+00
   -0.16101E+00    0.14212E+00    0.33694E+00
   -0.23002E+00    0.15874E+00    0.36857E+00
   -0.21305E+00    0.61441E-01    0.37255E+00
    0.27779E+00    0.41573E+00    0.50000E+00
    0.31908E+00    0.38495E+00    0.41268E+00
   -0.29652E+00    0.15810E+00   -0.26724E+00
   -0.39059E+00    0.13185E+00   -0.24642E+00
   -0.35756E+00    0.83753E-01   -0.18130E+00
   -0.35837E+00    0.22347E+00   -0.23278E+00
   -0.36782E+00    0.19857E+00   -0.32053E+00
   -0.38890E+00    0.31425E+00    0.23046E+00
   -0.42000E+00    0.27129E+00    0.32063E+00
   -0.35537E+00    0.35172E+00    0.32232E+00
   -0.35175E+00    0.89859E-01   -0.31715E+00
   -0.28156E+00    0.65038E-01   -0.23947E+00
    0.28265E+00    0.18637E+00    0.37899E+00
    0.35115E+00    0.91319E-01    0.31873E+00
    0.36296E+00    0.16433E+00    0.43389E+00
    0.30545E+00    0.56173E-01    0.41157E+00
    0.20337E+00    0.78984E-01    0.38962E+00
    0.20112E+00    0.17186E+00    0.43781E+00
    0.36226E+00    0.19441E+00    0.32201E+00
   -0.10803E+00    0.42195E+00    0.29844E+00
   -0.25842E-01    0.41852E+00    0.21513E+00
   -0.43538E-01    0.49810E+00    0.23487E+00
    0.25492E+00    0.10565E+00    0.44153E+00
    0.25173E+00    0.28102E+00    0.40811E+00
    0.24649E+00    0.72544E-01    0.23382E-01
    0.25169E+00    0.95587E-01   -0.44313E-01
    0.11740E+00    0.64667E-01    0.83031E-01
    0.34257E+00    0.74774E-01    0.10917E+00
    0.37252E+00    0.15143E+00    0.54062E-01
   -0.41149E+00    0.15074E+00   -0.38174E+00
   -0.44573E+00    0.22655E+00   -0.40845E+00
   -0.46933E+00    0.17243E+00   -0.31625E+00
    0.72940E-01    0.41458E+00   -0.15836E+00
   -0.70938E-02    0.39639E+00   -0.10627E+00
    0.95790E-01    0.29676E+00   -0.21409E+00
    0.19540E-01    0.40200E+00   -0.22050E+00
   -0.22966E+00    0.36984E+00    0.38748E+00
   -0.15693E+00    0.38420E+00    0.50000E+00
   -0.23587E+00    0.44087E+00    0.41262E+00
   -0.27779E+00    0.41573E+00    0.50000E+00
    0.19565E+00    0.35321E+00   -0.22826E+00
    0.12954E+00    0.39364E+00   -0.23085E+00
   -0.99764E-01    0.17102E+00    0.50000E+00
   -0.35356E+00    0.25384E+00   -0.37890E+00
   -0.32656E+00    0.20585E+00   -0.44108E+00
   -0.65116E-01    0.39668E+00   -0.36266E-01
    0.24188E+00    0.88764E-01   -0.13632E+00
    0.39174E+00    0.12122E+00    0.50000E+00
    0.49039E+00    0.97545E-01    0.50000E+00
    0.46194E+00    0.19134E+00    0.50000E+00
   -0.26040E-01    0.63488E-01    0.30812E+00
   -0.86121E-01    0.63867E-01    0.37123E+00
   -0.10875E+00    0.85326E-01    0.42794E+00
    0.11858E-01    0.63219E-01    0.37183E+00
    0.21674E-01    0.30286E+00    0.43461E+00
   -0.26305E+00    0.79273E-01    0.23703E+00
   -0.23089E+00    0.92850E-01    0.30290E+00
   -0.23191E+00    0.21187E+00    0.43320E+00
   -0.18392E+00    0.30797E+00    0.40372E+00
   -0.14319E+00    0.38724E+00    0.37644E+00
   -0.30306E-01    0.41302E+00    0.29537E+00
   -0.19611E+00    0.36237E+00   -0.12231E+00
    0.27056E+00    0.32989E+00    0.14895E+00
    0.14589E+00    0.24431E+00    0.43332E+00
    0.25757E+00    0.33205E+00    0.30851E+00
    0.35616E+00    0.23085E+00    0.70639E-01
   -0.14492E+00    0.47854E+00    0.41290E+00
   -0.95682E-01    0.49076E+00    0.32488E+00
    0.21880E-02    0.50000E+00    0.32497E+00
    0.61038E-01    0.12750E+00   -0.28991E+00
   -0.13989E-01    0.92964E-01   -0.22855E+00
    0.78371E-01    0.80137E-01   -0.22101E+00
    0.83781E-01    0.66665E-01   -0.36198E+00
    0.14268E+00    0.39436E+00   -0.38204E+00
    0.10472E+00    0.38083E+00   -0.43932E+00
   -0.19134E+00    0.46194E+00   -0.50000E+00
   -0.15505E+00    0.32720E+00   -0.43216E+00
   -0.23869E+00    0.43935E+00   -0.40990E+00
    0.11401E+00    0.42223E+00   -0.29643E+00
    0.19162E+00    0.12757E+00   -0.43527E+00
    0.11713E+00    0.99867E-01   -0.41961E+00
   -0.29208E-01    0.84295E-01    0.17104E+00
   -0.65556E-01    0.89950E-01    0.77239E-01
    0.21696E+00    0.86955E-01   -0.32686E+00
   -0.11472E+00    0.48666E+00   -0.13457E+00
   -0.16960E+00    0.47036E+00   -0.40951E-01
   -0.73644E-01    0.49455E+00   -0.40615E-01
   -0.34401E+00    0.10417E+00    0.21128E+00
   -0.25490E+00    0.82490E-01    0.73393E-01
   -0.10685E-01    0.64700E-01    0.26691E-01
   -0.27743E+00    0.31100E+00    0.54931E-01
   -0.30824E+00    0.39369E+00    0.49789E-01
   -0.35273E+00    0.23203E+00    0.22892E+00
   -0.36879E+00    0.20505E+00    0.11761E+00
    0.36365E+00    0.20176E+00   -0.32445E+00
   -0.39174E+00    0.12122E+00   -0.50000E+00
   -0.29593E+00    0.15936E+00   -0.50000E+00
   -0.32678E+00    0.72674E-01   -0.50000E+00
   -0.16028E+00    0.37760E+00   -0.56411E-01
    0.39924E+00    0.58615E-01    0.91471E-01
    0.41963E+00    0.11508E+00    0.14883E+00
   -0.20871E+00    0.45436E+00   -0.13471E+00
   -0.15644E+00    0.47490E+00   -0.22722E+00
    0.34770E+00    0.16492E+00   -0.42990E+00
    0.39070E+00    0.17968E+00   -0.50000E+00
    0.29689E+00    0.18445E+00   -0.36609E+00
    0.32589E+00    0.25517E+00   -0.50000E+00
    0.28055E+00    0.27144E+00   -0.44182E+00
    0.30321E+00    0.28821E+00   -0.37864E+00
    0.20208E+00    0.55851E-01   -0.42356E+00
    0.15054E+00    0.84878E-01   -0.50000E+00
    0.25040E+00    0.84735E-01   -0.50000E+00
    0.30096E+00    0.57411E-01   -0.39779E+00
    0.28174E+00    0.11675E+00   -0.44310E+00
   -0.36486E+00    0.20016E+00    0.32023E+00
   -0.39779E+00    0.14649E+00    0.25537E+00
   -0.35046E+00    0.16848E+00    0.43587E+00
   -0.30275E+00    0.11677E+00    0.43871E+00
   -0.30147E+00    0.55882E-01    0.38033E+00
    0.23998E+00    0.20051E+00   -0.43999E+00
    0.37854E+00    0.20312E+00   -0.11576E+00
    0.41987E+00    0.11216E+00   -0.15913E+00
    0.19970E+00    0.16799E+00   -0.50000E+00
    0.83172E-01    0.49303E+00   -0.13408E+00
   -0.16386E-01    0.49973E+00   -0.13445E+00
    0.17027E+00    0.78107E-01    0.21818E+00
    0.25357E-01    0.49936E+00   -0.40453E-01
   -0.31913E-01    0.49898E+00    0.51566E-01
    0.12462E+00    0.48422E+00   -0.40051E-01
   -0.16527E+00    0.75097E-01    0.21844E+00
   -0.69740E-01    0.93121E-01    0.22641E+00
   -0.11787E-01    0.63219E-01   -0.37161E+00
   -0.36374E+00    0.21239E+00   -0.42469E-01
   -0.25971E+00    0.42726E+00   -0.41653E-01
    0.39751E-01    0.49842E+00   -0.22716E+00
    0.44842E+00    0.22118E+00   -0.22370E+00
    0.47098E+00    0.16785E+00   -0.13552E+00
    0.47442E-01    0.49774E+00   -0.41014E+00
   -0.51267E-02    0.49997E+00   -0.31959E+00
    0.93564E-01    0.49117E+00   -0.31931E+00
    0.43231E-01    0.24472E+00    0.50000E+00
    0.35247E+00    0.22629E+00   -0.28891E-02
    0.44278E-01    0.43391E+00    0.29826E+00
    0.67670E-01    0.49540E+00    0.51589E-01
    0.18027E-01    0.43388E+00   -0.29965E+00
    0.97545E-01    0.49039E+00   -0.50000E+00
   -0.51273E-01    0.49736E+00   -0.41005E+00
   -0.38245E-01    0.42502E+00   -0.50000E+00
   -0.22046E-01    0.33436E+00   -0.50000E+00
    0.15857E+00    0.90679E-01   -0.88571E-01
    0.14424E+00    0.47874E+00   -0.40988E+00
   -0.41750E+00    0.56042E-01    0.20603E+00
   -0.49479E+00    0.71996E-01    0.30778E+00
   -0.42752E+00    0.12220E+00    0.44586E+00
   -0.39070E+00    0.17968E+00    0.50000E+00
   -0.44502E+00    0.22794E+00    0.40887E+00
   -0.46194E+00    0.19134E+00    0.50000E+00
   -0.29515E+00    0.54120E-01   -0.39698E+00
   -0.46740E+00    0.17759E+00    0.13530E+00
   -0.42061E+00    0.62519E-01    0.29662E+00
    0.13231E+00    0.72531E-01   -0.21090E-01
    0.12237E+00    0.63305E-01   -0.30262E+00
   -0.12266E+00    0.62737E-01    0.30484E+00
    0.24638E+00    0.77444E-01    0.50000E+00
   -0.18392E+00    0.39054E+00    0.29302E+00
   -0.59517E-01    0.49645E+00   -0.22739E+00
   -0.10347E+00    0.48918E+00   -0.31957E+00
    0.15100E+00    0.72905E-01    0.30865E+00
   -0.36463E+00    0.70188E-01   -0.98239E-01
    0.24535E+00    0.23497E+00   -0.50000E+00
    0.41582E+00    0.11980E+00   -0.34121E+00
    0.29464E+00    0.16838E+00   -0.50000E+00
    0.12332E+00    0.41649E+00    0.30385E+00
    0.24215E+00    0.43745E+00    0.23624E+00
   -0.15283E+00    0.82309E-01   -0.50000E+00
   -0.48467E+00    0.12287E+00    0.22263E+00
   -0.42623E+00    0.11415E+00    0.35027E+00
   -0.34936E+00    0.89959E-01    0.31699E+00
   -0.91849E-16    0.50000E+00   -0.50000E+00
    0.45483E-01    0.41038E+00   -0.50000E+00
    0.20445E+00    0.14624E+00    0.50000E+00
    0.27412E+00    0.21723E+00    0.44021E+00
    0.21309E+00    0.22970E+00    0.50000E+00
    0.31361E+00    0.26184E+00    0.50000E+00
    0.33668E+00    0.26828E+00    0.38387E+00
    0.37568E+00    0.20301E+00    0.50000E+00
    0.29593E+00    0.15936E+00    0.50000E+00
    0.15133E+00    0.47655E+00    0.23527E+00
   -0.36791E+00    0.24225E+00    0.42156E+00
   -0.28636E+00    0.27734E+00    0.44481E+00
   -0.32589E+00    0.25517E+00    0.50000E+00
    0.36435E+00    0.65833E-01   -0.81654E-01
    0.34564E+00    0.98924E-01   -0.73086E-02
   -0.29464E+00    0.16838E+00    0.50000E+00
   -0.48377E+00    0.12634E+00    0.40568E+00
   -0.38969E+00    0.58276E-01    0.38352E+00
   -0.35458E+00    0.88264E-01    0.50000E+00
    0.42648E+00    0.57340E-01    0.44912E+00
    0.39074E+00    0.56911E-01    0.39044E+00
   -0.42648E+00    0.57340E-01   -0.44912E+00
   -0.39107E+00    0.56148E-01   -0.38562E+00
   -0.48404E+00    0.12531E+00   -0.40554E+00
   -0.49039E+00    0.97545E-01   -0.50000E+00
    0.48389E+00    0.12591E+00   -0.40506E+00
    0.49492E+00    0.71126E-01   -0.30766E+00
    0.40641E+00    0.65546E-01   -0.41452E+00
    0.35458E+00    0.88264E-01   -0.50000E+00
    0.40205E+00    0.67322E-01    0.22491E+00
    0.49309E+00    0.82831E-01    0.14198E+00
    0.48506E+00    0.12132E+00    0.22521E+00
   -0.42484E+00    0.10866E+00   -0.16280E+00
   -0.48640E+00    0.11582E+00   -0.22494E+00
   -0.45157E+00    0.21468E+00   -0.22784E+00
   -0.49451E+00    0.73924E-01   -0.14620E+00
   -0.37568E+00    0.20301E+00   -0.50000E+00
   -0.24451E+00    0.98271E-01   -0.45607E+00
   -0.24638E+00    0.77444E-01   -0.50000E+00
    0.48560E+00    0.11914E+00   -0.22272E+00
    0.49399E+00    0.77274E-01   -0.14434E+00
   -0.44647E+00    0.22509E+00    0.22717E+00
   -0.14756E+00    0.47773E+00   -0.41027E+00
   -0.49511E+00    0.69784E-01   -0.30799E+00
    0.45777E+00    0.20111E+00   -0.38120E-01
   -0.49039E+00    0.97545E-01    0.50000E+00
   -0.46786E+00    0.17637E+00    0.31649E+00
    0.41573E+00    0.27779E+00   -0.50000E+00
    0.46841E+00    0.17490E+00   -0.31482E+00
   -0.19970E+00    0.16799E+00    0.50000E+00
   -0.75990E-01    0.32934E+00    0.50000E+00
   -0.48573E-01    0.49764E+00    0.41300E+00
    0.75990E-01    0.32934E+00   -0.50000E+00
   -0.97545E-01    0.49039E+00   -0.50000E+00
   -0.11700E+00    0.39049E+00   -0.50000E+00
   -0.12271E+00    0.28718E+00   -0.50000E+00
    0.42136E+00    0.26918E+00    0.32326E+00
   -0.46194E+00    0.19134E+00   -0.50000E+00
   -0.19017E+00    0.46242E+00    0.32456E+00
   -0.27789E+00    0.41566E+00    0.32369E+00
   -0.31809E+00    0.38577E+00    0.41237E+00
   -0.25279E+00    0.31794E+00    0.50000E+00
    0.15693E+00    0.38420E+00   -0.50000E+00
    0.25279E+00    0.31794E+00   -0.50000E+00
    0.27779E+00    0.41573E+00   -0.50000E+00
    0.31847E+00    0.38545E+00   -0.40933E+00
    0.35672E+00    0.35035E+00   -0.31590E+00
    0.99764E-01    0.17102E+00   -0.50000E+00
   -0.38892E+00    0.31424E+00    0.41107E+00
   -0.24535E+00    0.23497E+00    0.50000E+00
    0.28118E+00    0.41344E+00    0.32541E+00
   -0.12964E+00    0.48290E+00    0.51308E-01
    0.33802E+00    0.36843E+00    0.60865E-01
   -0.21309E+00    0.22970E+00   -0.50000E+00
   -0.22742E+00    0.34345E+00   -0.50000E+00
   -0.41573E+00    0.27779E+00    0.50000E+00
   -0.32037E+00    0.38388E+00   -0.41011E+00
    0.35793E+00    0.34913E+00    0.32538E+00
    0.38956E+00    0.31344E+00    0.41188E+00
    0.41573E+00    0.27779E+00    0.50000E+00
    0.32330E+00    0.38142E+00    0.23817E+00
   -0.31361E+00    0.26184E+00   -0.50000E+00
   -0.41573E+00    0.27779E+00   -0.50000E+00
   -0.22287E+00    0.44758E+00    0.50764E-01
   -0.41786E+00    0.27457E+00    0.13853E+00
   -0.35172E+00    0.35538E+00    0.14015E+00
   -0.39027E+00    0.31255E+00   -0.40975E+00
    0.15283E+00    0.82309E-01    0.50000E+00
   -0.27857E+00    0.32227E+00   -0.14561E+00
   -0.18269E+00    0.46543E+00    0.14355E+00
   -0.87607E-01    0.49227E+00    0.14394E+00
   -0.35355E+00    0.35355E+00    0.50000E+00
    0.35355E+00    0.35355E+00   -0.50000E+00
    0.46798E+00    0.17606E+00    0.14130E+00
    0.44425E+00    0.22944E+00    0.57294E-01
   -0.53187E-01    0.86931E-01   -0.50000E+00
    0.11332E+00    0.17896E+00    0.50000E+00
    0.15373E+00    0.26539E+00   -0.50000E+00
   -0.15373E+00    0.26539E+00    0.50000E+00
    0.39485E+00    0.30675E+00   -0.20908E-01
    0.31151E+00    0.39110E+00   -0.33993E-01
    0.36251E+00    0.34437E+00    0.15325E+00
    0.39586E+00    0.30544E+00    0.78023E-01
    0.31854E+00    0.38540E+00   -0.22288E+00
    0.39328E+00    0.30876E+00    0.23786E+00
    0.42280E+00    0.26691E+00    0.15100E+00
    0.99902E-01    0.48992E+00    0.32497E+00
    0.19398E+00    0.46084E+00    0.32509E+00
    0.42471E+00    0.26386E+00   -0.12636E+00
   -0.20445E+00    0.14624E+00   -0.50000E+00
    0.44807E+00    0.22188E+00    0.23339E+00
   -0.27163E+00    0.41978E+00    0.14230E+00
   -0.31629E+00    0.38725E+00    0.23320E+00
    0.39193E+00    0.31047E+00   -0.22169E+00
    0.30616E-16    0.50000E+00    0.50000E+00
    0.55063E-01    0.49696E+00    0.23479E+00
    0.10886E+00    0.48801E+00    0.14406E+00
   -0.14045E+00    0.47987E+00    0.23465E+00
   -0.23245E+00    0.44268E+00    0.23417E+00
    0.49039E+00    0.97545E-01   -0.50000E+00
    0.46194E+00    0.19134E+00   -0.50000E+00
   -0.27779E+00    0.41573E+00   -0.50000E+00
    0.35355E+00    0.35355E+00    0.50000E+00
    0.35717E+00    0.34990E+00   -0.12522E+00
   -0.19134E+00    0.46194E+00    0.50000E+00
    0.19134E+00    0.46194E+00   -0.50000E+00
   -0.29595E+00    0.40301E+00   -0.13477E+00
   -0.35355E+00    0.35355E+00   -0.50000E+00
    0.10830E-01    0.49988E+00    0.14397E+00
CELLS       6584     32920
         4         0         1         3         2
         4         0         1         2         4
         4         5         6         0         3
         4         7         8        10         9
         4        11         5         0         4
         4        12        13        15        14
         4         0         6         5        16
         4         0         6        16        11
         4         0         5         3         1
         4        17        18         1        19
         4         1        20        21        17
         4         1        19        23        22
         4         1        18         3        24
         4         0        25         2         3
         4        26        27        29        28
         4        26        30        31        27
         4        26        32        34        33
         4        26        30        27        28
         4        35        27        37        36
         4        35        38        39        37
         4        35        37        39        40
         4        35        36        42        41
         4        43        44        46        45
         4        45        43        44        47
         4        43        48        50        49
         4        43        51        53        52
         4        43        48        54        44
         4        43        55        52        56
         4        57        58        59         6
         4        60         3        57        61
         4        57        58         6        62
         4        63        64        66        65
         4        66        32        31        41
         4        66        67        69        68
         4        66        63        65        41
         4        66        64        70        65
         4        66        41        71        32
         4        66        32        71        68
         4        66        67        70        72
         4        73        74        76        75
         4        73        77        79        78
         4        73        80        82        81
         4        73        80        75        76
         4        67        83        85        84
         4        86        87        68        88
         4        67        72        89        84
         4        90        91        93        92
         4        67        86        68        94
         4        67        70        85        94
         4        66        67        68        70
         4        95        96        97        24
         4        98        99       100        81
         4       101       102        99       103
         4       102        98       104       101
         4        98       105       101        81
         4        98       106        49       107
         4       108       104        98       109
         4       110       111       113       112
         4        98       107        49       108
         4       114       115       117       116
         4       118       119       121       120
         4       114       122       117       115
         4       114       116       124       123
         4       114       123       126       125
         4       114       127       125       126
         4       114       127       122       128
         4       129        44        45        46
         4       129       130       132       131
         4       132        48       129       133
         4       134       132       133        48
         4       129        44       136       135
         4       129        46       138       137
         4       129       137       131       133
         4       129        54       137       133
         4        16        61       140       139
         4       103        99       101        59
         4        99        98       102       101
         4       102        59       103        61
         4       141       112       143       142
         4       103       101       139        59
         4       103       140        47        61
         4       103        61        47       102
         4       116       124       144       117
         4       144       145        17        18
         4       144        18        17        19
         4       144       146       148       147
         4       144       136       130       145
         4        22       144        19       146
         4        19        17       144        22
         4        39        31        38        35
         4       149       150       152       151
         4       153        31       154        39
         4        31        39        58       154
         4        57       155       156       154
         4        58       155       154        39
         4       157       158        23        95
         4       157         4         2        23
         4       159       160       162       161
         4       163       164       166       165
         4       167       157       169       168
         4       157       170       171       158
         4       157       170       158       172
         4       157         4        23       169
         4       173       174        36        40
         4        36       174       176       175
         4       177       178       179        36
         4       178       180       179       181
         4       182       183       185       184
         4       186       187       189       188
         4        36       190       179        71
         4       178        36       191       190
         4       190       178        36       179
         4       178       192       181       179
         4       174       178       173        36
         4       193       194       196       195
         4       176       178       174        36
         4       197       175       199       198
         4       175       186       201       200
         4       175       199       203       202
         4       175       199        37       203
         4       204       175       200       186
         4       175       200       174       176
         4       175       205       174       201
         4       175       205       201       203
         4       115       206       128       122
         4       115       117       208       207
         4       115       148       210       209
         4       115       211       122       207
         4       115       208       148       209
         4       212        81       213       101
         4       213        34       215       214
         4        66        63        31       213
         4       213        80        81       212
         4       213        99       101        81
         4       213        32        68       216
         4       213        34       216       215
         4       154        99        59        31
         4        99       217       154        59
         4        99       102       160       217
         4        99       218        63       219
         4        59        99       101        31
         4       204       220       188       189
         4        73       221        75        80
         4        80        76       223       222
         4       224       225       227       226
         4        80        69       222       228
         4       228        80        69       224
         4        38        39        58        31
         4        80       229       222        69
         4        56       230        55       231
         4        56        55       230       232
         4       231        56       159        52
         4        56       231       159       233
         4       234       235        56       233
         4       236       234       233       235
         4        56       237       238       232
         4        56       234       238       237
         4        64       239       241       240
         4        64       221        63        72
         4        64       221        72       239
         4        64       239       242       241
         4        80        72        63       221
         4       221       243        63        81
         4        73        81       243       221
         4       221       244       229        72
         4       245       239       221       246
         4       173       247       249       248
         4       221       239       245       244
         4       221       229       245        79
         4       250       251       253       252
         4        73        76        82        80
         4        89        72        69       229
         4        81       218       243        63
         4       101       212       105       214
         4        81       105        82       100
         4        73        82       100        81
         4        99       218       100        81
         4       101       139       109       104
         4       103       139        61        59
         4       213        80       254        68
         4        66        68        69        80
         4       213       101        34       214
         4       255       256       258       257
         4        98       100       105        81
         4       101        98       109       105
         4       259       101       139       109
         4        72       239       244        84
         4       214       139        34       260
         4        88       261       263       262
         4        88       264       265        86
         4        88       265       266        86
         4        88       267       268       266
         4        88       263       269       262
         4       203       270       272       271
         4       190       273       275       274
         4       276       277       145       278
         4       278       134        48       132
         4       279        50       278       280
         4       281       282       284       283
         4       149       285       145       277
         4       182       286       143       287
         4       182       228       222        69
         4       182       261       288       228
         4       182       261       184       185
         4       182       289       290       287
         4       182       289       288       290
         4       291       292       164       293
         4       291       294       292       295
         4       291       296       297       165
         4       291       292       165       164
         4       291       296       292       294
         4       298       299       301       300
         4       298       300       301       302
         4       298       303       305       304
         4       298       303       306       305
         4       298       303       302       306
         4       170       307       309       308
         4        51       310       312       311
         4       170       313       314       158
         4       170       158       314       171
         4       170       315       309       294
         4        30        27        38        31
         4        30       139        16       316
         4        26        28        34        30
         4       281       317       282       318
         4       319       250       321       320
         4       322       316       319       250
         4        28       316       322       250
         4       323       317       318       324
         4       316        30       139        34
         4       130       144       117       147
         4       117       144       116       147
         4       117       124       326       325
         4       114       124       116       117
         4       145       123       276       124
         4       278       136       285       145
         4       242       323       327       317
         4       145         3       285        17
         4        45       328       311       329
         4       285       277       278       145
         4       145        17       285       149
         4        23       157        95         2
         4       172       158       157        95
         4       330       302       332       331
         4       277       333       335       334
         4       157       336       315       170
         4       158        95       172       337
         4       158       313       314       338
         4        98       100       106       107
         4       307       339       341       340
         4       170       309       313       308
         4       307       309       292       294
         4         2       337        24       342
         4       307       343       344       296
         4       307       294       292       296
         4       307       336       344       340
         4       170       172       336       340
         4       170       340       345       172
         4       307       341       346       340
         4       307       340       346       345
         4       155       347       348        62
         4        57         3         6        61
         4       155        39       350       349
         4       155       351       350        39
         4       155       156       349       347
         4       155        39       349       154
         4       352       353       137       354
         4       355       352       354       353
         4        48       129       133        54
         4       129       137       138       131
         4       137        54        46       352
         4       129        54        46       137
         4       137       133       353       131
         4       137        54       352       354
         4       144        18       136       145
         4       130       138       356       131
         4       129       130       131       138
         4       129       130       136       132
         4       130       131       124       132
         4       130       326       356       357
         4       130       357       358       147
         4       115       148       208       147
         4       357       117       360       359
         4       147       359       361       146
         4       117       359       362       360
         4       117       147       359       357
         4        25         2       168         4
         4        25       118       364       363
         4        25       168       364        11
         4         0         6        11        25
         4       365       366       368       367
         4        25       319       364       118
         4        25         6       319       118
         4        98        49       106       102
         4        49        50        47       104
         4        43        49        55        48
         4        49       369        55        48
         4       370        50        49       104
         4       105       371       373       372
         4       107       374       369        49
         4        99        63       375       219
         4        98        81       101        99
         4        73        81       218       243
         4        78       376       100       107
         4       377       378       380       379
         4        73       381        77        78
         4        78       382        79       376
         4       376       100       106       218
         4       107        52       231       106
         4       107       100       381       108
         4        80       212        82        81
         4        73       376       246       243
         4        73       221        79        75
         4        30        38       322       319
         4        30       319        16         6
         4        57        58       154        59
         4        57        61       217        60
         4         6       351        58        38
         4        58        59        31       154
         4        57        59       217        61
         4        58       351        62       155
         4       383       384       386       385
         4       383       384       388       387
         4       383       180       389       181
         4       383       388       255       256
         4       383       389       255       388
         4       131       390       391       326
         4       137       353       352       391
         4       370       392       394       393
         4       131       132       133       395
         4       396       323       324       241
         4       130       131       356       326
         4        26        36        71       190
         4        26        36        27        35
         4       175        36        40        37
         4        35        31        42       153
         4        27        38        35        37
         4       129       278       132       136
         4       278       285        47        50
         4       278        44        47       136
         4       129       136       138       135
         4        44       135        47       136
         4        26        35        27        31
         4        66       213        80        63
         4       397       398       400       399
         4       213       254       216        68
         4       214       371       402       401
         4        32       216        33        68
         4        66        31        63        41
         4        66        70        68        71
         4        67        94        68        70
         4        70       281       180       177
         4        70        84       242        72
         4       403       404       406       405
         4        51        60       310       217
         4        70        65       242       281
         4        70        94        71       179
         4        70        94        68        71
         4        94        71       179       192
         4       407       331        93       408
         4        94        71       409        68
         4        94       192       409        71
         4       144       124       116       123
         4       410       411       413       412
         4        23        19         1        95
         4        95        18         1        24
         4         1        19        18        95
         4       144        19        97        18
         4        18         3       414       136
         4       223       227       415       373
         4        18         3       145        17
         4         1         5        17        21
         4       358        18       144        97
         4       123       416       418       417
         4       138       328       420       419
         4       421       123       417       422
         4       144       130       124       145
         4       123       422       128       416
         4       123       422       416       417
         4       123        17       423       418
         4       424       425       427       426
         4       424       127       206       428
         4       424       429       128       422
         4       424       430       128       429
         4       424       422       128       125
         4       125       424       425       127
         4       210       128       206       430
         4       128       430       424       206
         4       430       431       424       426
         4        33       253       433       432
         4       382       434       436       435
         4        78       382       435       437
         4       382       435       437       434
         4       437       438       382       300
         4       260       439       441       440
         4        26        32        41        31
         4        26        32        31        34
         4        31        41        35        42
         4        58        30        59         6
         4        99       218       160       106
         4       331        93       408       442
         4        41        31        63       375
         4        63        41       375       443
         4       140       104        47        50
         4       140       104       279       109
         4       109       139       140       104
         4       140        50       285       279
         4       140       444       285         5
         4       140       444         5       445
         4        49        47       102       104
         4       103       140       104        47
         4       278        44        48        50
         4       278        44        50        47
         4       140        16       445         5
         4       370        50       104       279
         4       104        50       140       279
         4        43        47        50        44
         4        50       280        48       278
         4        50        48       280       370
         4       216       433       446       432
         4       279       278        50       285
         4       447        13       448       341
         4       449       450       447       451
         4       445       402       452       441
         4       453       451       449       448
         4       451       448       447       449
         4       447       454       449       448
         4       454        13       447       455
         4        25         6       118        62
         4        25       118       363       121
         4         6       319       118        38
         4        25         2         3       342
         4        61         5         3         6
         4        25         6        11       319
         4         0        25         3         6
         4       169       168       456       167
         4       169        23       457        20
         4       169         4       458       456
         4        43        47        51       102
         4       278        48       134       280
         4        43        54        48        55
         4        43        54        53        46
         4        52        43        56        53
         4        52       106       102       162
         4       107        52        55       231
         4       459       435       233       159
         4       435       159       231       233
         4        56       234       233       159
         4       231       435       436       434
         4        56        52       231        55
         4       231       106       159       376
         4       107       435       376       231
         4       107        78       460       381
         4       231       460       434       230
         4        23       457        22       461
         4        23       457       461       462
         4       358       463       464       420
         4       462        23       465       461
         4       361       466       468       467
         4        95       157       172         2
         4       157       457       462       469
         4        23       470       171       465
         4       171       470        23       158
         4       158        23        95       470
         4        80       222       229        75
         4       224        68        69        87
         4       259       471       402       371
         4        67        69       261        89
         4       182       261       228        69
         4       199       472       474       473
         4       199        38       322        27
         4       199       473       475       472
         4       173       177        36       178
         4        26        71        41        32
         4        94       180       192       179
         4        94       476       192       180
         4       179        41        71        65
         4        71        68        33       409
         4       174        40       175        36
         4        36        71       179        41
         4       192       178       190       179
         4       477       478       480       479
         4       477       479       481       478
         4       477       481       483       482
         4       157       168       172         2
         4       109       394       471       484
         4        19       485        96       470
         4        18        19        97        95
         4         2        25       337       342
         4        62       118        25       120
         4         2        95       337       172
         4       157         2         4       168
         4       316       432       439       440
         4       157       462       457        23
         4       336       167       168       157
         4       168       340       336       172
         4       168       336       486       167
         4       168        11       456       487
         4       168        11         4       456
         4        16        59        61       139
         4        58        38        31        30
         4        35        31       153        39
         4       118       119       472       363
         4       199       472       322        38
         4        30        38       319         6
         4        38       118       351       119
         4        38        31        27        35
         4       488        15       490       489
         4       490       489       491       488
         4       202       491       489       119
         4       490       202       492       270
         4       490       474       489        12
         4       493       202       490       474
         4       186       493       474       202
         4       490       492       202       493
         4       340       363       341       121
         4       340       344       486       336
         4       340       363       121       172
         4       157       172       336       170
         4       457        20        22       416
         4        23       457        20        22
         4        18         3        24       414
         4       477       478       482        20
         4       226       227       446       225
         4       477       457       483       494
         4         6         5        16        61
         4       103       104       102        47
         4       118         6       351        62
         4        61        60        47       102
         4         3        62        60        57
         4        66        72        70        64
         4       243       246       495       193
         4        66       213        68        80
         4        63       443       219       243
         4        64       243       239       240
         4        64       242        72        70
         4        42        31        41       375
         4        34        32        31       213
         4        25       168       172       364
         4       364       363       365       486
         4       364        11       321       319
         4       221       239       244        72
         4        29        28       253        33
         4        89        84        72       244
         4        64        65       242        70
         4       280       496       335       333
         4       224       227       225       415
         4       218       106        99       100
         4        64        63       243       443
         4       351       271       272       497
         4        80       221        75       229
         4        67       498        89       261
         4        35        36        37        40
         4        27       322       475       250
         4       199       322       475        27
         4        26        34        28        33
         4        27       322       250        28
         4       175        27        37       199
         4       243       495       246       239
         4       243       246       193       499
         4       499       218       376       106
         4        30        59        34        31
         4       246       376       499       243
         4        64       240       443       243
         4        73        81       100       218
         4        73       221       243       246
         4       218        63       219       243
         4        73        78       100       381
         4       107       369        55        49
         4        79        75       110        77
         4        73        78        79       376
         4        78       376       435       382
         4        78       382       437        79
         4        79       438       437       299
         4       382       246       438        79
         4       221        72       229        80
         4        64       239       243       221
         4        73        80        81       221
         4       416       480       500       477
         4       457       461       500       416
         4       169        20       482       458
         4        20         4        21       458
         4       157       169       457       469
         4        20       480       416       477
         4       457        22       461       416
         4       157       168       336       172
         4       295       501       293       502
         4       157       315       171       170
         4       503       504       506       505
         4       246       245       507       438
         4       291       295       508       294
         4       291       292       293       295
         4       294       336       508       344
         4       307       296       344       294
         4       339       343       307       296
         4       424       427       206       426
         4       307       309       308       451
         4       343       340       339       307
         4       170       309       314       313
         4       307       292       309       451
         4       294       292       509       309
         4       170       309       315       314
         4       170       294       336       315
         4       154       510       349       511
         4         3        47        60       135
         4       214       401       402       441
         4        61        47        60         3
         4         1        18        17         3
         4         3       136        47       135
         4         3       285        47       136
         4       285       136         3       145
         4         3       136        18       145
         4       222       141       512       143
         4       222        76       141        75
         4       222       228       289       415
         4       222       141        76       512
         4       222       415       223       228
         4        78       460       437       435
         4       107       460       231       230
         4       107       108       374        49
         4        98        49       104       108
         4        99        81        63       218
         4        73        79        77        75
         4        73       100       376       218
         4        73       376       243       218
         4       221       243       246       239
         4       308       513       514       309
         4        67        70        72        84
         4        79        75       515       110
         4        75       286       515       141
         4        75       110        74       141
         4        75        74        76       141
         4       340       346       345       172
         4       307       339       296       451
         4       219       161       195       516
         4       170       336       294       307
         4       168       364       486       363
         4       168       340       486       336
         4       168       364        11       487
         4       336       469       315       508
         4       344       291       294       296
         4       330        90       331       332
         4        47         5         3        61
         4       145       124       132       130
         4       138       136       129       130
         4       278       145       132       136
         4         1         2        95        24
         4        18       136       414       358
         4       160       499       106       218
         4       107       369       230        55
         4       107        78       435       460
         4       231       435       233       436
         4       107       376       435        78
         4       107        49        55        52
         4       231       159       435       376
         4       207       517       518         8
         4       207       517       362       518
         4       207       122         7       211
         4       519       207       208       362
         4       207       211       519       208
         4        13        12       520        14
         4        13       448       521       454
         4       447       451       341       448
         4        13       522        12        15
         4        13       489       523       341
         4        13        12       522       489
         4        13       523       448       341
         4       137       354       524        54
         4       352        54        46       238
         4        54        48        55       369
         4        43        52       102        51
         4        56        55       232        54
         4       358       138       130       136
         4        54        48       525       133
         4        54       369       525        48
         4        54       238       354       232
         4       526        16       527       445
         4         1        21         4         5
         4         5        17        21       444
         4         3         5       285        17
         4       527        11         4         5
         4       131       325       528       326
         4       130       131       326       124
         4       115       147       208       117
         4       124       132       395       276
         4       115       147       116       148
         4       114       128       122       115
         4       114       124       126       123
         4       117       126       325       122
         4        11         4       456       458
         4        11       321       319        16
         4        25         2       172       168
         4       364        11       487       321
         4       168       363       172       364
         4       140        16         5        61
         4        61       139       103       140
         4       139       214       101       259
         4       279       149       140       529
         4       103        59       102        99
         4       109       529       139       259
         4        52        51       162       102
         4        99       375        63        31
         4       239       377       530       244
         4       100       108       105        82
         4       495       246       530       531
         4       246       507       530       531
         4       246       507       531       504
         4        79       229       245       515
         4       376       435       459       159
         4       107        49        52       106
         4        30        59       139        34
         4       445       402       532       452
         4       139       529       445       259
         4         3       285         5        47
         4        34       139       316       260
         4       526       139        16       445
         4       139       316       526        16
         4        34       214       101       139
         4        61         6        59        16
         4        73       100        82       381
         4       140         5        47        61
         4        99       219       160       218
         4       315       533       534       171
         4        43       102        52        49
         4       529       140       445       444
         4       231       230       434       235
         4       218       219       160       499
         4       246       438       507       504
         4        52       106       159       231
         4       213        81        63        99
         4        78       437       460        77
         4       144       358       361       147
         4       271       497       351       350
         4       278       276       134       132
         4       144       145       123        17
         4       131       326       391       356
         4       123       126       276       124
         4       129       136        44       278
         4       129       278        48       132
         4        94       535       476       180
         4        70       281       535       180
         4       180       179       181       192
         4       383       536       385       180
         4        54        55       232       369
         4        49       370       369        48
         4        44        47       135        45
         4        54       524       133       525
         4       145       276       278       132
         4       277       279       285       278
         4        48       525       133       134
         4        66        72        63        80
         4        18        24        97       414
         4        67        85        86        94
         4        94        86       266       476
         4        30        38        27       322
         4       101        59        34       139
         4        26        32        33        71
         4       315       534       533       501
         4        41        65        42       443
         4        70       242       535       281
         4       177        70        65       179
         4        70       535        85        94
         4        65        42       177       179
         4        65       323       396       242
         4        70        94       180       535
         4        66        67        72        69
         4       500       416       477       457
         4        68       254       226       224
         4        26        41        71        36
         4        94        86       476        85
         4        25       172         2       337
         4         1        23        20        22
         4         0         5        11        16
         4       145       423       276       123
         4       145       149       423        17
         4         5       527        21         4
         4         6        62         3        57
         4        17       285       149       444
         4        20        22       416        17
         4       212       401       227       373
         4       537       514       538       309
         4       539       361       146       144
         4        22       465       461       540
         4        22       465       540       148
         4        20       416       480       417
         4        23       470       465        22
         4        22       465       146       470
         4       416       461       128       116
         4       470        23        95        19
         4       416        17       123       418
         4       123       416       128       116
         4       123        17       416       116
         4       129       278        44        48
         4       144       124       123       145
         4       116       128       210       461
         4       115       128       210       116
         4       123       423       125       421
         4        20       416       418        17
         4       126       124       114       117
         4       131       528       133       353
         4       219       511       161       516
         4       391       131       137       353
         4       391       326       390       541
         4       131       528       395       133
         4       130       356       358       357
         4       243       240       193       495
         4       542       543       438       506
         4       438       543       245       507
         4       382       506       303       438
         4       438       506       303       542
         4        99       160       102       106
         4        34       316        28       215
         4        64        72       242       239
         4       213        32       216        34
         4         1         4        20        23
         4       144        19       146       539
         4         5        17       444       285
         4       117       326       124       130
         4        17       423       418       149
         4         3       135       414       136
         4       148        22       146       144
         4       414        18       358        97
         4         0        25        11         4
         4       375       154        31        99
         4        99        59       102       217
         4        57       156       217       154
         4        49        50       370        48
         4        49       108       370       104
         4       140        47       285        50
         4        98       102       106        99
         4        57        62        60       156
         4       118       363       472       364
         4        25       168        11         4
         4         0        25         4         2
         4        11       527       544        16
         4        57        58        62       155
         4       140       445        16       139
         4        57        58       155       154
         4       168       340       363       486
         4        11         4       458       527
         4       106       100        98        99
         4         0         1         4         5
         4       545       546       548       547
         4       381       549       393       108
         4       157       171       462        23
         4       157       336       469       315
         4       500       410       480       429
         4       500       550       551       494
         4       477       500       494       552
         4       535       553       555       554
         4       477       483       481       556
         4       500       552       410       413
         4       500       413       550       552
         4        56       235       232       230
         4       107       374       460       230
         4       495       557       558       193
         4       144        22       116       148
         4       470       559        96        95
         4       470       560       146       485
         4        19        22       146       470
         4        19        95        96        97
         4       158       561       313       559
         4        54       525       232       524
         4       215       439       227       401
         4         5       285       140        47
         4         1        17        22        20
         4        19        23        22       470
         4         1         2         4        23
         4       178       389       181       176
         4       170       307       340       336
         4        36       198       190        27
         4       175       191       176        36
         4       199       203       119        38
         4        38       118       119       472
         4       213        99        63        31
         4        35       153        42        40
         4       202       199       119       474
         4       199        27       475       198
         4       531       562       564       563
         4        57        59       154       217
         4       199        38        37       203
         4        39        38       351       203
         4       105       373       371       401
         4       118       121       119       363
         4       474       363       472       119
         4       363       472       565       474
         4       304       566       567       305
         4       168       487       486       364
         4       363       489       565       341
         4        71        33       190       409
         4        71        41        66        65
         4       535       242        70        84
         4        66        71        65        70
         4        65        71       179        70
         4       407       568       233       569
         4        93       331       407       505
         4        90        93       505       331
         4       407       570        93       505
         4       570       568       407       569
         4       571       572       407       408
         4       407       569       571        93
         4       172       337       346       345
         4       470       485       559       560
         4        95        24       561        96
         4       169       397       483       469
         4       169        20       458         4
         4       157       462       171       469
         4       158       345       337       172
         4        57        62       156       155
         4       260        34       214       215
         4        39       271       350       247
         4       319       322       250       320
         4       364       319       320       472
         4        38       319       472       322
         4       319       250       316       321
         4       199       475       197       198
         4        25       342        62       120
         4       363       489       121       119
         4       444       285       149       140
         4        25       342       120       121
         4       364       472       365       363
         4       330        90       506       303
         4       330       573       575       574
         4       228       415       225       288
         4       330       332       576       574
         4       330        90       332        92
         4       493       202       186       201
         4       493       201       186       187
         4       493       474       577       186
         4        15       493       488       490
         4       493       488       578        15
         4       579       492       578       187
         4       492       187       493       578
         4       580       238       354       352
         4       581       352       354       355
         4       582       583       584       581
         4       583       581       580       584
         4       580       234       585       237
         4       580       586       238       352
         4       587       580       586       234
         4       580       234       237       238
         4       580       354       238       237
         4       383       588       384       387
         4       387       589       384       388
         4       387       388       256       258
         4       387       590       592       591
         4       387       592       590       593
         4       383       256       588       387
         4       387       258       594       388
         4       200       174       176       595
         4       200       176       597       596
         4       200       187       189       186
         4       200       201       174       598
         4       598       595       600       599
         4       601       355       390       391
         4       601       541       603       602
         4       601       604       603       541
         4       601       605       604       541
         4       601       602       607       606
         4       607       601       604       603
         4       601       608       605       390
         4       609       574       442        92
         4       354       580       352       581
         4        76       373       372        82
         4       610       354       355       581
         4       355       352       391       611
         4       232       230       612       369
         4       355       610       608       353
         4       355       354       610       353
         4       236       613       585       237
         4       407       233       436       236
         4       236       436       615       614
         4       236       616       233       234
         4       236       616       617       572
         4       455        13       447       339
         4       280       496       333       392
         4       450       537       292       451
         4       450       537       548       618
         4       450       451       296       339
         4       447       455       339       450
         4        13       341       339        12
         4        12       339       520       619
         4       521       522        13        15
         4       490       577       474        12
         4        12       565       474       489
         4        13       489       341        12
         4       377       620       241       495
         4       201       202       203       270
         4       175       201       174       200
         4       201       270       492       202
         4       595       200       598       600
         4       493       187       492       201
         4       200       600       187       201
         4       175       186       197       202
         4       423       334       621       150
         4       186       202       474       197
         4       530       557       623       622
         4       175       186       204       197
         4       493       186       577       187
         4       186       204       188       189
         4       236       587       585       617
         4        88       267       266       624
         4       375       625       510       511
         4       236       572       569       616
         4       234       233       626       616
         4       234       238       586        53
         4       236       436       614       235
         4       352       580       583       581
         4       580       581       354       237
         4       237       238       232       354
         4        56       232       235       237
         4       237       235       613       627
         4       330        91       575       573
         4        90       331       442        93
         4        90       506       503        91
         4        90       503       505       570
         4        90       503       570        91
         4       330       573       303       506
         4        90       332        92       442
         4       146       208       359       519
         4       331       302       300       303
         4       407       331       408       628
         4       407       628       436       331
         4       331       332       442       408
         4       407       236       436       615
         4       407       436       628       615
         4       331       300       436       505
         4       331       300       302       628
         4       450       165       296       292
         4       450       548       455       618
         4       537       451       309       292
         4       450       292       296       451
         4       537       547       548       618
         4       294       509       315       309
         4       292       538       509       309
         4       292       509       293       295
         4       387       591       589       388
         4       236       235       613       237
         4       388       384       389       629
         4       230       630       632       631
         4       388       633       389       255
         4       388       258       633       255
         4       360       634       635       359
         4       117       360       541       357
         4       117       360       362       517
         4       403       634       404       405
         4       360       541       603       636
         4       360       541       637       603
         4       255       281       282       318
         4       180       389       177       255
         4       388       389       633       638
         4       387       593       256       588
         4       255       283       282       281
         4       255       282       257       258
         4       528       353       640       639
         4       528       353       639       133
         4       500       641       461       494
         4       429       410       480       422
         4       429       431       430       412
         4       429       128       461       210
         4       429       461       641       210
         4       424       429       422       431
         4       465       146       560       642
         4       643       620       378       622
         4       560       146       485       467
         4       244       378       644       380
         4       645       465       338       646
         4       470       560       559       338
         4       560       642       646       465
         4       163       292       165       450
         4       537       647       163       538
         4       193       558       195       196
         4       533       309       314       315
         4       309       314       648       533
         4       170       313       345       308
         4       307       345       451       308
         4       537       309       451       308
         4       291       508       297       344
         4       309       538       648       649
         4       163       546       547       618
         4       537       308       453       514
         4       537       309       308       514
         4       304       299       303       438
         4       506       531       504       503
         4       506       564       531       503
         4       506        91       650       503
         4       573        91       506       330
         4       506       503       650       564
         4       438       303       304       542
         4       506       507       563       543
         4       543       506       507       438
         4       506       542       573       303
         4       506       573       563       650
         4       531       503       564       196
         4       241       327       324       651
         4       503       504       570       196
         4       120       348       272       652
         4       330        90        92        91
         4        90       505        93       570
         4       462       483       494       398
         4       494       550       556       552
         4       494       461       653       641
         4       500       551       641       494
         4       457       494       462       483
         4       477       416        20       457
         4       477       552       480       500
         4       457       494       461       462
         4       526       441       452       654
         4       482       478       655        21
         4       482       656       658       657
         4        20        21       478       482
         4       482       478       481       655
         4       157       336       167       469
         4       261       263       288        87
         4       261        87       288       228
         4        88       262       264       261
         4       261       498       264        86
         4       182       261        89       184
         4       261        89       184       498
         4        87        67       261        86
         4       117       207       517       362
         4       517       659       661       660
         4       363       472       365       565
         4       660         8         9       661
         4       661       517       663       662
         4       636       360       659       517
         4       571        93       442       408
         4       155       497       347       349
         4       360       517       636       404
         4       517       362       518       404
         4        45       328       329       420
         4       659       360       117       517
         4       659       605       665       664
         4       659       661       662       517
         4       389       388       629       666
         4       383       384       389       388
         4       387       384       589       588
         4       384       385       536       667
         4       383       384       588       386
         4       384       629       668       181
         4       384       669       386       667
         4       384       667       589       669
         4       397       657       670       656
         4       397       469       508       295
         4       397       671       672       508
         4       397       469       398       483
         4       397       469       295       502
         4       397       400       672       399
         4       397       670       671       167
         4       242       327       379       673
         4       536       275       668       674
         4       242       317       553       281
         4       242       317       673       553
         4       242       555       379        84
         4       110       141       515       142
         4        75       141       515       110
         4       110       515       567       142
         4       110       567       515       304
         4       110       675       676       112
         4       110       675       112       142
         4       110       111       677        77
         4       330       303       302       331
         4       303       542       305       304
         4       222       141       286        75
         4        73        76        74        82
         4        75       515       286       229
         4       512       141        76       113
         4       141       286       142       143
         4       636       662       517       659
         4       110       112       113       141
         4       141       113        74        76
         4       169        20         4        23
         4       360       362       404       678
         4       358       135       136       414
         4       361       144       147       146
         4       423       421       418       150
         4       425       127       424       428
         4       428       424       425       427
         4       127       122       128       206
         4       114       127       126       122
         4       127       125       679       425
         4       438       507       504       506
         4       300       298       299       303
         4       304       676       680       299
         4       298       302       680       681
         4       246       499       504       193
         4       298       305       680       304
         4        79       110       515       304
         4        79       438       299       304
         4       469       462       398       483
         4       469       315       295       501
         4       469       315       501       534
         4        94       266       409       476
         4        26        27       190        29
         4        65        63       443        41
         4       266       268        88        68
         4        67        69        68        87
         4        67        86        85       498
         4        88        68        86       266
         4       678       360       634       404
         4       518       519       362       207
         4        30        16       319       316
         4       517       636       404       682
         4       360       635       357       359
         4       362       360       359       678
         4       266       267       683       624
         4       266        88       624       265
         4        86       684       265       476
         4       269       267        88       624
         4       261        87        86        88
         4       266       409       683       685
         4        94       409       266        68
         4       127       686       679       126
         4       127       122       325       126
         4       660       325       665       686
         4       659       665       661       660
         4       559       313       687       561
         4       660       517       207         8
         4       117       541       664       326
         4       117       357       326       130
         4       517       660       661         8
         4       383       180       688       255
         4       180       536       476       192
         4       385       476       536       683
         4       526       440       441       654
         4       383       536       181       384
         4       386       674       690       689
         4       385       684       535       476
         4       385       476       689       684
         4       536       668       275       192
         4       383       384       181       389
         4       384       668       667       536
         4       386       667       674       385
         4       180       385       535       476
         4       544       691       692       654
         4       313       693       513       648
         4       330       302       306       576
         4       503       505       570       504
         4       382       505       459       436
         4       407       236       569       233
         4       331       436       300       628
         4       383       387       388       256
         4       629       388       589       666
         4       389       174       595       176
         4       389       173       633       248
         4       255       281       318       177
         4       688       256       255       283
         4       589       384       388       629
         4       387       589       592       588
         4       178       389       173       177
         4       389       176       595       666
         4       308       453       513       313
         4       451       346       341       523
         4       450       339       694       455
         4       537       308       451       453
         4       450       296       165       694
         4       451       341       448       523
         4       307       346       341       451
         4       307       451       345       346
         4       450       694       339       296
         4       447       448        13       454
         4       178       174       173       389
         4       200       176       596       595
         4       539       695       468       696
         4        40       175       203       205
         4       175       176       191       204
         4       493       492       202       201
         4       175        36        27       198
         4       465       645       642       646
         4        56       233       235       231
         4       231       436       235       434
         4       435       233       436       459
         4        56       159        53       234
         4        54        56        43        53
         4       580       234       238       586
         4       356       391       541       326
         4       697       602       541       391
         4       541       356       637       697
         4       117       359       208       362
         4       601       390       605       541
         4       659       636       662       604
         4       659       541       605       664
         4       360       603       403       636
         4       326       541       356       357
         4        12       474       565       698
         4       489       474       119       363
         4       522       488       489        15
         4       165       164       166       699
         4       522       489        12        15
         4       489       121       523       341
         4        13       489       522       523
         4       281       317       553       284
         4       281       284       282       317
         4       281       323       317       318
         4       255       318       633       177
         4       180       535       688       281
         4       255       389       177       633
         4       360       357       637       541
         4       117       208       359       147
         4       359       146       519       700
         4       560       646       642       701
         4       359       361       146       466
         4       359       361       466       635
         4       360       357       635       637
         4       175       201       202       203
         4        38       472       319       118
         4       475       368       320       473
         4       475       198        29       702
         4        27        29       250       475
         4        16       526       321       316
         4       458       544       527       691
         4       544       527       691       703
         4       526       527       544       703
         4       526       445       527       452
         4       526       441       440       260
         4       526       452       441       445
         4       526       321       692       544
         4       489       490       491       202
         4       465       704       642       645
         4       490       489       474       202
         4       199       474       197       473
         4       186       474       188       197
         4       175       186       202       201
         4       175        37        27        36
         4       201       203       205       270
         4       146       701       705       467
         4       236       234       237       585
         4       237       627       232       235
         4        56        54       232       238
         4        56       237       235       234
         4       234       586       626        53
         4       474       197       706       188
         4       199       202       119       203
         4       294       508       291       344
         4       291       508       707       297
         4       469       534       171       315
         4       397       398       399       483
         4       508       671       297       344
         4       294       336       315       508
         4       397       508       672       295
         4       708       438       245        79
         4       508       295       707       672
         4       336       508       344       167
         4       298       299       680       301
         4       299       677       301       437
         4       299       437        77       677
         4        79       110       299        77
         4       304       680       676       566
         4       304       567       566       676
         4       239       244        84       377
         4       242       377        84       379
         4       239       377       495       530
         4       644       244       530       378
         4       709       710       646       711
         4       377       380       244        84
         4       242       379       327       377
         4       377       380       378       244
         4       505       459       568       570
         4       233       616       569       568
         4       407       408       615       628
         4       171       645       534       704
         4       436       235       434       614
         4        52       162       159       106
         4       436       628       614       300
         4       355       352       611       583
         4       131       124       395       325
         4       353       390       640       608
         4       601       712       608       355
         4       353       713       639       524
         4       353       524       354       713
         4       147       146       208       359
         4       359       361       635       357
         4       361       635       358       463
         4       147       361       357       358
         4       224       223       227       415
         4       224       227       254       226
         4        96       539        97       696
         4        96        97       714       696
         4        19        96        95       470
         4       158        95       559       470
         4        96       695       561       559
         4       316       252       440       692
         4        19       539        97        96
         4       470       560       338       465
         4       299       298       304       303
         4       507       563       623       531
         4       507       530       623       644
         4       492       187       579       600
         4        37        39       203        38
         4       506       504       531       507
         4       216       215       432       446
         4       239       242       377        84
         4       507       530       644       245
         4       560       146       701       642
         4        22       116       461       416
         4       169       457       469       483
         4        22       146       465       148
         4       147       146       148       208
         4       146       209       148       208
         4       115       117       116       147
         4       115       206       210       128
         4       117       660       517       207
         4       390       391       353       131
         4       659       117       541       664
         4       115       211       206       122
         4       115       208       211       207
         4       338       710       559       687
         4       710       338       559       560
         4       711       338       687       710
         4       338       313       687       559
         4         2        95        24       337
         4       167       670       671       715
         4       144        19       539        97
         4       397       469       169       167
         4       434       230       460       632
         4        95       561       559        96
         4       503        91       650       564
         4        76       372       373       512
         4       530       620       495       557
         4       620       530       495       377
         4        73       246       376        79
         4       246       193       504       531
         4       218       219       499       243
         4       622       530       557       620
         4       507       644       543       245
         4       530       495       531       557
         4        64       221       243        63
         4       459       504       194       570
         4       407       505       436       233
         4       382       300       434       437
         4       460       435       107       231
         4       482       483       656       657
         4        97        18        95        24
         4       494       462       398       653
         4       105       371       259       214
         4       169       483       482       457
         4       397       399       657       483
         4       716       421       125       621
         4       424       431       422       125
         4       125       126       679       621
         4       125       422       128       123
         4       421       125       123       422
         4       114       116       128       115
         4       343       619       366       717
         4       718       428       206         7
         4       428       660       122         7
         4       127       325       122       660
         4       127       686       126       325
         4       416       128       461       429
         4       115       210       148       116
         4       719       156       349       310
         4       528       353       390       640
         4       390       640       605       664
         4       601       355       608       390
         4        26        36       190        27
         4        67        87       261        69
         4        86        85       498       684
         4       266       476       683       409
         4       387       594       258       593
         4        72        80        69       229
         4       536       385       683       674
         4       476       535        85       684
         4       385       535       684       720
         4        66        80        69        72
         4       110       142       112       141
         4       515       721       142       286
         4       107       381       100        78
         4       304       515       708       567
         4       515       286       229       721
         4       338       687       313       314
         4       559       485       695       710
         4       470        96       559       485
         4       158       338       314       171
         4       158       313       561       345
         4       530       622       378       620
         4       246       504       499       376
         4       243       193       240       219
         4       239       241       240       495
         4       495       651       241       240
         4       525       722       612       232
         4       129       131       132       133
         4       525       392       280       369
         4       636       603       406       723
         4       409        33       433       268
         4        88        87       268       263
         4       266       685       268       409
         4       226       268        68        87
         4        70       535        84        85
         4       536       192       275       409
         4       117       207       362       208
         4       137        54       524       133
         4       279       104       370       109
         4       133       724       725       395
         4       133       524       639       722
         4       525       134       496       724
         4        96        24       561       714
         4       560       709       701       467
         4        19       146       539       485
         4       146       148       209       642
         4       560       710       646       709
         4       361       485       467       468
         4       485       539       695       468
         4       396       651       324       625
         4       393       460       374       630
         4       374       392       630       369
         4       374       381       460       393
         4       374       369       370       392
         4       107       230       369       374
         4        49       369       370       374
         4       416       500       429       461
         4       338       314       171       645
         4       309       313       648       314
         4       509       533       315       309
         4       170       345       340       307
         4       314       693       687       313
         4       314       313       648       693
         4       314       645       533       171
         4       338       645       726       314
         4       291       292       296       165
         4       727       561       345       337
         4       308       313       345       453
         4       309       513       649       648
         4       313       345       453       727
         4       314       687       693       726
         4       313       513       693       687
         4       233       159       626       568
         4       235       232       612       627
         4       235       232       230       612
         4        56        52        53       159
         4        64       443       396        65
         4        72        84       242       239
         4       377       379       380        84
         4        85        67        84        70
         4        83        89       244        84
         4        84       244        83       380
         4       429       410       412       411
         4       422       417       421       728
         4       422       421       716       728
         4       125       421       716       422
         4       396       625       324       729
         4       416       429       480       422
         4       422       480       728       410
         4       355       608       390       353
         4       583       352       581       355
         4       352       391       611       419
         4       583       580       352       586
         4       354       352       238        54
         4       137       353       524       354
         4        31       101        59        34
         4       352       138       419        46
         4        87       226       268       225
         4        71       409       190       192
         4       268        87        88        68
         4        67        85        83       498
         4       254       224        68        80
         4        69       261       228        87
         4        87       228       225       288
         4       472       565       473       365
         4       490       492       488       270
         4       119       270       272       203
         4       119       121       652       491
         4       652       119       272       120
         4       363       341       121       489
         4       474       565       698       706
         4        52       159       162        53
         4       159       730       162        53
         4       499       160       159       161
         4       159       626       730        53
         4       459       731       499       159
         4        56       234        53       238
         4       459       499       731       194
         4       382       436       434       300
         4       178       180       177       179
         4       175        37        40       203
         4       175       204       191       198
         4       204       188       220       197
         4       169       656       483       397
         4       266       265       683       476
         4       409       274       685       433
         4       345       346       453       732
         4       170       172       345       158
         4       345       732       337       346
         4       232       524       722       713
         4       525       133       724       722
         4        48       525       134       280
         4       525       232       524       722
         4       235       230       631       612
         4       279       733       333       334
         4       298       680       299       304
         4       232       713       627       354
         4       214       401       441       439
         4       129        44        46        54
         4       565       343       619       366
         4       343       339       341       565
         4       363       565       365       343
         4       565       473       365       368
         4        90       505       303       331
         4       204       198       197       220
         4       521        13       454       455
         4       156       719       347       312
         4       298       303       300       302
         4       719       156       310       312
         4       504       505       382       506
         4       233       505       568       407
         4       330       303       306       302
         4       300       434       301       614
         4       299       437       300       438
         4       299       437       301       300
         4       587       585       617       734
         4       291       699       164       165
         4       163       292       309       538
         4       294       315       295       508
         4       414       342       735        62
         4       388       633       258       638
         4       414       358       696        97
         4       683       674       689       736
         4         3       414       135        60
         4         5        21       527       444
         4       390       605       640       608
         4        17       444       418        21
         4       119       203       272       351
         4       144       136       358       130
         4       735        97        24       414
         4        84       535       555        85
         4       535       684       555        85
         4       535       554       720       688
         4       178       191       176       181
         4       409       274       275       685
         4       412       430       426       431
         4       530       245       246       239
         4        68       254       216       226
         4        26        35        31        41
         4       583       581       582       712
         4        65       281       323       242
         4       114       127       128       125
         4       144       147       148       116
         4       145       123        17       423
         4       209       208       146       519
         4       691       456       544       737
         4       106       102       162       160
         4        42       729       249       247
         4       362       678       518       404
         4       115       209       211       208
         4       529       151       532       733
         4       234        53       626       159
         4       434       437       632       460
         4       434       437       301       632
         4       158       338       559       313
         4       434       632       631       230
         4       235       434       631       230
         4       236       615       613       614
         4       279       149       529       151
         4        50       279       370       280
         4       279       394       109       370
         4       279       277       334       333
         4       560       709       646       701
         4       204       220       597       191
         4       191       668       181       192
         4       179       190       192        71
         4       638       738       591       666
         4       178       191       192       190
         4        36        41       179        42
         4       204       198       220       191
         4       660       664       665       325
         4       528       325       665       664
         4       526       654       692       440
         4       541       390       605       664
         4       659       636       604       541
         4       541       356       357       637
         4       388       258       594       638
         4       360       517       404       362
         4       537       451       449       453
         4       356       541       391       697
         4       660       117       659       664
         4       517       661       663         8
         4       256       258       257       593
         4       458       655       658       527
         4       340       339       341       343
         4       595       666       599       738
         4       451       346       453       345
         4       182        89       261        69
         4       346       652       337       121
         4       451       523       453       346
         4       345       337       732       727
         4       296       343       344       297
         4       363       365       486       343
         4       343       365       717       366
         4        12       489       341       565
         4       107       374       108       381
         4       202       119       203       270
         4       474       698       577       706
         4       407        93       570       569
         4       232       612       713       722
         4       407       408        93       571
         4       135       420       329       739
         4       133       724       722       639
         4       199       119       472        38
         4       475       473       197       740
         4       565       365       366       368
         4       473       197       740       706
         4       193       219       195       516
         4       495       193       531       557
         4       246       507       245       530
         4       193       531       557       196
         4       193       240       219       516
         4       382       246       376       504
         4       131       391       138       356
         4       131       528       325       395
         4       356       637       464       357
         4       130       356       138       358
         4       464       356       358       420
         4       560       467       710       709
         4       602       607       603       601
         4       148       209       642       540
         4         5        16       527        11
         4        58        31        59        30
         4        58         6        38        30
         4       601       604       608       606
         4       526       260       440       316
         4       238       352       586        46
         4       260       214       259       402
         4       524       639       722       713
         4       260       259       445       402
         4       169       168         4       456
         4       315       295       501       509
         4       131       124       325       326
         4       163       165       618       450
         4       356       391       138       697
         4       270       491       202       119
         4       601       391       611       355
         4       528       133       725       395
         4       601       611       606       712
         4       416       500       480       429
         4       537       647       514       547
         4        67        69        89        72
         4       163       546       164       538
         4       391       602       611       697
         4       525       133       722       524
         4       163       166       164       546
         4       353       354       610       713
         4       232       524       713       354
         4        53        54       238        46
         4       133       395       134       724
         4       528       325       395       725
         4        76       223       373       212
         4        80        76       212       223
         4       141       515       142       286
         4       110       304       299       676
         4        76        74       372       113
         4        76       223       512       373
         4       330       332       574        92
         4       326       541       664       390
         4       634       360       403       404
         4       636       741       682       662
         4        90       331       332       442
         4       662       682       636       517
         4       303       305       542       306
         4       636       404       406       403
         4       338       171       465       645
         4        25       363       172       121
         4       561       158       337        95
         4       377       643       378       379
         4       646       710       560       338
         4       561       313       727       345
         4       171       704       462       465
         4       298       306       681       305
         4       168       172       363       340
         4       330       306       574       576
         4       171       462       704       534
         4       288       262       185       290
         4       175       174       205        40
         4       489       202       119       474
         4       203        40       205       247
         4       247       203        40        39
         4       475       198       702       740
         4       204       197       198       175
         4       203       351       271       272
         4        26        29        33        28
         4       190       274       702       273
         4       160        51       102       162
         4       505       568       459       233
         4       193       504       531       196
         4       376       459       504       499
         4       300       434       437       301
         4       459       499       194       504
         4       107       376       106       231
         4       239       242       241       377
         4       244       742       229        89
         4       244        89        83       742
         4       244       245       742       644
         4       449       548       454       455
         4       377       620       327       241
         4       244       378       377       530
         4       242       327       241       377
         4        68        67        87        86
         4       163       292       164       165
         4       242       281       553       535
         4        65       396       323        42
         4        68       268        33       409
         4       565       698       366       619
         4        64       396       241       242
         4       336       508       167       469
         4       396       240       241       651
         4       465       461       540       704
         4        22       461       148       540
         4       470       560       465       146
         4       460       630       743       632
         4        23       461        22       465
         4       123       418       421       417
         4        30        59        16       139
         4       536       192       181       668
         4       171       645       704       465
         4       388       256       258       255
         4       147       359       357       361
         4       361       146       466       467
         4       539       358       696       463
         4       361       468       463       539
         4       594       387       591       590
         4        96       696       695       539
         4       388       389       638       666
         4       110       676       567       304
         4       388       591       666       638
         4       222        75       286       229
         4       182        89       229       721
         4       387       256       593       258
         4       515       229       744       721
         4       182       289       287       143
         4       286       287       142       143
         4       462       704       653       461
         4        20       418        21        17
         4       384       536       181       668
         4       387       592       593       588
         4       169       656       456       458
         4       158       559       338       470
         4       244       742       380       644
         4       469       167       157       169
         4       170       345       313       158
         4       365       366       367       717
         4       397       656       670       167
         4       483       556       399       657
         4        65       281        70       177
         4        91       330        90       506
         4       100        78        73       376
         4        67        89        83        84
         4       330       575        91        92
         4       536       476       409       683
         4        86       266       476       265
         4       180       536       192       181
         4        67        89       498        83
         4        88       261       264        86
         4       383       180       255       389
         4       332       574        92       442
         4       331       408       628       332
         4       609        92       575       574
         4        90       505       503       506
         4       531       564       562       557
         4       193       504       194       499
         4       507       531       623       530
         4        80        75        76       222
         4       110        74       111        77
         4        76        82       372        74
         4        69       229       222       182
         4        73        77       381        74
         4       618       548       546       547
         4        20       480       478       417
         4       417       478       152       479
         4       417       421       152       418
         4       416       422       480       417
         4       429       410       431       412
         4        29       250       251       253
         4       423       276       334       277
         4       423       150       621       421
         4       423       421       621       125
         4       116       210       148       461
         4       114       125       128       123
         4       514       537       538       647
         4       537       449       451       450
         4       545       547       647       546
         4        43        53        51        46
         4        53        46       730        51
         4        53        46       586       730
         4        54        55        43        56
         4       233       626       616       568
         4        43        50        48        44
         4       435       434       460       437
         4       291       164       699       293
         4       159       162       730       731
         4       450       455       548       449
         4       537       548       547       449
         4       537       547       514       449
         4       169       167       656       397
         4       469       171       534       462
         4       595       599       666       596
         4       173       248       249       633
         4       307       451       296       292
         4       291       508       295       707
         4       291       293       707       295
         4       295       707       672       745
         4       636       603       723       604
         4       208       211       519       209
         4       295       502       745       672
         4       636       741       723       746
         4       294       315       509       295
         4       229       744       721       742
         4       221       245       229       244
         4       396       240       651       625
         4       240       443       516       625
         4       193       499       194       195
         4       243       193       219       499
         4        64       396       443       240
         4       396       241       324       651
         4       495       241       651       620
         4       636       662       723       741
         4       404       634       678       405
         4       193       516       558       240
         4        94       476       535        85
         4       537       449       514       453
         4       601       541       391       390
         4       255       258       633       282
         4       720       256       688       283
         4       688       255       281       283
         4       175        36       198       191
         4       180       255       177       281
         4       180        70       177       179
         4       383       385       720       688
         4       256       383       720       688
         4       387       594       593       590
         4       143       512       113       141
         4       283       255       282       257
         4       110       113       111        74
         4       346       121       523       652
         4        79       110       304       299
         4       344       671       717       486
         4       296       297       619       343
         4       437        77       677       460
         4        46       730       328       586
         4       397       167       671       508
         4       678       362       519       359
         4       444       747       151       152
         4       369       612       392       630
         4       291       165       707       699
         4       170       307       308       345
         4       350       351       271        39
         4       260       526       445       139
         4       296       297       694       619
         4       296       339       619       694
         4       135       739       312       735
         4        69       224        87       228
         4       261       288       263       262
         4       224        87       225       226
         4       249       173        42       247
         4       535       720       554       684
         4       173       247        40        42
         4       108       393       394       484
         4        40        42       247       153
         4       155       348       347       497
         4       447       450       449       455
         4       163       166       618       165
         4        36       191       190       198
         4       174       173       248        40
         4       603       723       604       607
         4       204       597       176       191
         4        40       248       247       173
         4       271       247        39       203
         4       156       347       719       349
         4       714       748       749       337
         4       128       125       127       424
         4       360       678       634       359
         4       325       725       686       395
         4       541       604       603       636
         4       117       541       360       659
         4       517         8       682       518
         4       358       696       463       739
         4       131       353       390       528
         4       517       518       682       404
         4       118       120       351       119
         4       387       589       591       592
         4       528       664       640       390
         4        40       247        39       153
         4       490       488       492       493
         4       137        46       138       352
         4       238        53        46       586
         4       362       518       678       519
         4       245       644       744       742
         4       489       491       121       119
         4        46       311        51        45
         4        46        51       311       730
         4       352       419       586        46
         4        20       478       418       417
         4       149       285       279       140
         4       529       532       402       471
         4       389       248       595       174
         4       465       642       540       148
         4       193       195       558       516
         4        31       153       154       375
         4       461       148       540       210
         4       494       462       653       461
         4        20       482       458        21
         4       506       650       563       564
         4       477       457        20       482
         4       477       478       481       482
         4       656       658       750       458
         4       481       483       482       657
         4       477        20       480       478
         4       482       655       658       458
         4       422       728       480       417
         4       478        21       152       655
         4       477       494       483       556
         4       477       480       552       479
         4       224       415       225       228
         4       222       143       286       141
         4       182       143       286       222
         4       295       293       501       509
         4        80       224       223       254
         4       135       329       312       739
         4        89        69       182       229
         4        80       222       223       228
         4       298       301       680       302
         4       382       438       504       506
         4        76        82       212       373
         4       751       310       161       162
         4       182       721       184        89
         4       222       223       415       512
         4       224       223       415       228
         4       374       230       630       460
         4       744       245       515       708
         4       299       301       677       680
         4        72       244       229        89
         4       437       677       632       460
         4       530       623       644       378
         4       182       286       183       721
         4       213       101        31        34
         4        84       555       380        83
         4        89       229       721       742
         4        80       212       254       223
         4       182       228       289       222
         4       109       371       471       259
         4       495       193       558       240
         4       224       254       227       223
         4       223       212       227       373
         4        87       263       288       225
         4       123       423       276       125
         4       395       752       724       725
         4       636       403       406       603
         4       517       663       682         8
         4       125       716       425       431
         4       176       596       666       629
         4       424       425       431       125
         4       240       651       625       516
         4       125       422       716       431
         4       385       386       689       674
         4        22       148       461       116
         4       176       666       596       595
         4       191       181       668       597
         4       186       577       187       188
         4       360       635       634       637
         4       200       187       186       201
         4       200       597       176       204
         4       176       178       389       174
         4       176       181       597       629
         4       318       177       323        42
         4       396       323        42       729
         4       153       247       350       510
         4       495       651       558       620
         4       396        42       443       625
         4       281       323       318       177
         4       242       241       327       323
         4       450       537       449       548
         4       323       241       327       324
         4       330        90       303       331
         4       300       301       302       628
         4       438       304       708       542
         4       656       458       750       456
         4       510       154       153       375
         4       315       533       509       501
         4       382       435       436       459
         4       457       483       462       469
         4        78       460       381        77
         4       749       337       342        24
         4       313       561       727       687
         4       475       251       740       702
         4       489       121       491       523
         4       616       587       236       617
         4       121       652       120       119
         4        62       749       347       348
         4       544       692       691       737
         4       337       652       732       748
         4       340       486       343       363
         4       356       697       420       464
         4       356       464       637       697
         4        51       311       730       751
         4       337       342       121       120
         4       298       681       306       302
         4       363       343       341       565
         4        42       318       249       729
         4       323       318        42       729
         4       326       664       325       528
         4       178       180       389       177
         4       459       194       568       570
         4        36        42       173        40
         4        70        94       179       180
         4       355       353       390       391
         4       134       752       335       724
         4       235       631       614       613
         4        46       328       730       311
         4       713       610       581       354
         4        55       369       230       232
         4       235       613       627       631
         4       292       293       509       164
         4       469       502       534       501
         4       230       369       630       612
         4       374       230       369       630
         4       397       657       656       483
         4       230       632       630       460
         4       556       481       657       483
         4       689       476       385       683
         4       295       745       502       293
         4       483       399       556       398
         4       383       385       688       180
         4       476       689       265       683
         4       123       276       126       125
         4       504       531       196       503
         4       515       142       744       567
         4       304       567       708       305
         4       117       207       122       660
         4       656       750       657       670
         4       358       135       739       420
         4       473       368       706       740
         4       321       753       692       737
         4       535       555       684       554
         4        43        44        54        46
         4       226       216        33       433
         4       688       554       720       283
         4       283       688       554       281
         4       118         6        38       351
         4       321       753       252       692
         4       423       621       334       276
         4       356       357       464       358
         4       358       135       696       739
         4       144       361       358       539
         4       361       146       485       539
         4       438       543       542       708
         4       635       357       361       358
         4       539        97       696       358
         4       409        33       274       433
         4       245       744       543       708
         4       409       275       683       685
         4       529       471       733       532
         4       554       688       535       281
         4       506       531       564       563
         4       190       198       702        29
         4       374       630       392       393
         4       478       655       479       481
         4        32        68        33        71
         4       409       190       274        33
         4       478       152       479       655
         4       190       198       273       702
         4       529       402       532       445
         4       399       754       398       400
         4       191       273       668       192
         4       462       653       704       534
         4       383       181       536       180
         4       174       248       205        40
         4       477       556       552       494
         4       191       190       198       273
         4       115       210       206       211
         4       486       167       671       715
         4       486       365       487       367
         4       343       297       717       344
         4       343       486       717       365
         4       494       653       551       641
         4       112       675       755       142
         4       266       683       265       624
         4       247        42       729       153
         4       226       446       268       225
         4       309       513       313       308
         4        80        63        81       221
         4       186       204       197       188
         4       105       401       214       212
         4       364       321       320       319
         4        25       172       363       364
         4       163       450       618       537
         4       377       643       379       327
         4       370       394       392       333
         4       377       620       378       643
         4       378       620       377       530
         4       625       443       516       375
         4        67        86       498       261
         4        79       246       438       245
         4       101        99       213        31
         4       359       519       678       700
         4       207         7         8       518
         4       117       122       325       660
         4       664       665       640       605
         4       396       323       729       324
         4       475        29       251       702
         4       636       662       604       723
         4       191       176       181       597
         4       190       702       274        29
         4        37       203        39        40
         4       198       197       220       740
         4       200       598       600       201
         4       191       220       273       198
         4       395       724       752       134
         4       384       386       669       588
         4       176       597       596       629
         4       117       147       357       130
         4       137       352       138       391
         4       353       133       524       639
         4       200       189       187       600
         4       389       595       633       638
         4       383       386       588       720
         4       364       365       320       487
         4       340       346       121       341
         4       343       344       717       486
         4       145       276       132       124
         4       260       441       439       214
         4       356       420       697       138
         4       157       169        23       457
         4       207       519       211       518
         4       385       386       720       689
         4       226       446       227       254
         4       200       174       595       598
         4       486       715       367       487
         4        19       470       146       485
         4       428         7       122       206
         4       485       467       468       695
         4       472       473       565       474
         4       500       411       551       413
         4       365       320       367       368
         4        38       119       351       203
         4       444       151       747       532
         4       168       486       487       456
         4       656       167       750       670
         4       494       556       550       398
         4       560       710       485       559
         4       456       487       737       715
         4       456       487       544       737
         4       456       691       544       458
         4       456       458       750       691
         4       169       656       167       456
         4       456       715       750       167
         4       339       565        12       341
         4       374       370       393       392
         4       416       429       422       128
         4       127       206       428       122
         4       407       236       615       572
         4        88       261        87       263
         4       374       370       108       393
         4        41       179        42        65
         4        52        53       162        51
         4       221        75       229        79
         4        49       370       108       374
         4       104       370       109       108
         4       237       232       627       354
         4       656       750       167       456
         4       222        76       223       512
         4        53       162        51       730
         4       129        45       138        46
         4       328        46        45       311
         4       182       183       287       290
         4        46       138       419       328
         4       203       271       351        39
         4       322       475       250       320
         4        77       460       743       677
         4       382       435       459       376
         4       201       598       205       174
         4        65       281       177       323
         4       383       588       256       720
         4       536       674       683       275
         4       560       710       467       485
         4       500       411       410       429
         4       389       176       629       181
         4       594       387       388       591
         4        11       544       321        16
         4        96       561       695       714
         4       465       540       642       704
         4       384       667       386       385
         4       226       433       268       446
         4       536       275       683       409
         4       320       487       367       753
         4       319       322       320       472
         4       475       320       368       251
         4       320       250       753       251
         4       155       350       497       349
         4       364       320       321       487
         4       475       320       251       250
         4        28       253       432       252
         4        89       184        83       742
         4        62       735       347       749
         4       244        83       380       742
         4       261       184       264       498
         4       177       173        42       249
         4       383       384       385       536
         4       325       395       686       126
         4       486       365       367       717
         4       423       621       276       125
         4       519       146       209       700
         4       461       704       641       540
         4       340       121       346       172
         4        96       539       695       485
         4       506       531       563       507
         4       660       665         9       686
         4       363       489       474       565
         4       161       159       499       731
         4       417       418       152       478
         4       193       504       196       194
         4       358       739       463       420
         4       357       635       637       464
         4       531       557       562       623
         4         1         2        24         3
         4       278       279       280       277
         4       636       406       404       682
         4       331       303       300       505
         4       146       466       705       700
         4       360       403       637       634
         4       499       161       219       160
         4       659       605       604       662
         4       636       682       741       406
         4       239       530       495       246
         4        81        82       105       212
         4       193       499       195       219
         4       528       725       665       325
         4       359       466       756       634
         4       127       428       425       679
         4       660       686         9       428
         4       122         7       211       206
         4       217       511       349       310
         4       126       752       621       276
         4         9         7       718        10
         4       395       126       276       752
         4       475       250       251        29
         4        35        36        40        42
         4       473       365       368       320
         4       163       450       537       292
         4       490       474       577       493
         4       104       102       101       103
         4        27       190        29       198
         4       683       265       736       689
         4        63       219       443       375
         4        26        35        41        36
         4       384       589       588       669
         4       577        15       490       493
         4       261       185       264       184
         4       153       729       247       510
         4       199       197       474       202
         4       565       698       706       366
         4       489       488       522       491
         4       565       343       339       619
         4        13        12       339       520
         4       447       451       339       341
         4       346       337       652       732
         4       472       475       320       473
         4       469       295       502       501
         4       641       500       429       411
         4       494       398       551       653
         4       309       313       513       648
         4       364       365       487       486
         4       397       400       398       502
         4         1        17        19        22
         4       313       513       727       453
         4       337       714       561        24
         4       461       641       704       653
         4       494       550       551       398
         4       373       105       212       401
         4       157       171        23       158
         4       382       438       437        79
         4       304       438       708        79
         4       556       398       754       550
         4       245       708        79       515
         4        84        85       555        83
         4       239       530       245       244
         4       244       229       742       245
         4       245       229       742       744
         4       525       280       496       134
         4       397       672       502       295
         4       525       232       612       369
         4       286       142       287       183
         4       286       183       721       142
         4       145       132       136       130
         4        75        77        74       110
         4       132       276       134       395
         4       222       512       289       143
         4       395       134       752       276
         4       567       110       142       675
         4       132       133       395       134
         4       199       474       472       119
         4       407       331       436       505
         4       119       120       351       272
         4       320       487       753       321
         4        74       113       549       372
         4       143       755       287       142
         4        19        96       485       539
         4       157       168         4       169
         4        12       619       698       565
         4       487       737       753       321
         4        26        33        29       190
         4        29       250       253        28
         4       316        30        28       322
         4        59         6        30        16
         4       369       370       392       280
         4       162       161       751       731
         4       129       138        45       135
         4       236       233       436       235
         4       515       567       744       708
         4       572       569       571       407
         4       134       496       335       280
         4       134       280       335       277
         4       279       280       333       370
         4       280       370       392       333
         4       470       338       171       465
         4       280       277       333       335
         4       424       426       431       425
         4       125       425       716       679
         4       114       126       117       122
         4       417       421       728       152
         4       422       431       728       716
         4       500       461       641       429
         4       337       749       652       748
         4       691       544       703       654
         4       276       621       335       752
         4       374       393       108       381
         4        89       498        83       184
         4       177       249       633       173
         4       381       460       393       743
         4       261       264       185       262
         4        77       549       743       381
         4       242       379       555       553
         4       110       677       111       676
         4       110       111       112       676
         4       110       677       676       299
         4        78        79       437        77
         4       351       497       155       350
         4        74       381        82       549
         4        77       381       743       460
         4       598       579       599       600
         4       625       729       153       510
         4       595       638       666       738
         4        74       549       111        77
         4       515       245       744       229
         4        73        75        77        74
         4       102       217        51       160
         4       482       658       481       657
         4       107       374       381       460
         4       361       635       463       468
         4       207       660         8         7
         4       102        47        51        60
         4       565       343       366       365
         4       486       717       715       671
         4       450       694       618       455
         4       541       637       603       602
         4       339       455       520       694
         4       447        13       341       339
         4       282       257       284       283
         4       180       385       688       535
         4        11       456       487       544
         4        86       476        85       684
         4       163       309       292       537
         4       549       108       381        82
         4       450       165       618       694
         4       296       165       694       297
         4        82       108       105       484
         4       242       673       379       553
         4       526       316       440       692
         4        82       373       372       105
         4       240       651       516       558
         4       242       323       317       281
         4        87       263       225       268
         4        32        33       216        34
         4       385       720       688       535
         4       320       250       321       753
         4        27        29        28       250
         4       600       595       596       599
         4       536       667       674       668
         4       389       177       633       173
         4       180       281       688       255
         4       250       321       252       316
         4       191       192       190       273
         4       601       602       606       611
         4       397       670       399       672
         4       337        25       121       342
         4       359       466       700       756
         4       319        30       316       322
         4       316        34       260       215
         4       365       320       487       367
         4        29        33       253       274
         4       121       172        25       337
         4       396       240       625       443
         4       477       481       479       552
         4       178       181       389       180
         4       437       632       677       301
         4       135       312       329        45
         4       148       209       540       210
         4        61       217        60       102
         4       125       716       621       679
         4       153       625       510       375
         4       144       130       358       147
         4       461       641       210       540
         4       456       737       750       715
         4        45       311       312       329
         4       133       725       724       639
         4       162       731       751       730
         4       429       430       641       411
         4       204       175       176       200
         4       355       353       391       352
         4       519       362       208       359
         4       191       273       220       597
         4       528       725       639       640
         4       175       199       198        27
         4       625       153        42       375
         4       353       639       610       640
         4        80        82       212        76
         4       100       381       108        82
         4       429       411       412       430
         4        21       444       747       527
         4        82       105       212       373
         4       511       510       375       154
         4       383       385       386       720
         4       204       220       189       597
         4       163       538       164       292
         4       486       715       487       456
         4        12       577       698        14
         4        28       316       252       432
         4       250        28       316       252
         4       198       273       702       220
         4        13       520       521        14
         4       477       481       552       556
         4       359       700       466       146
         4       385       689       720       684
         4       474       577       188       706
         4       384       668       629       667
         4        30        28       322        27
         4       250        28       252       253
         4       250       321       753       252
         4        26        30        34        31
         4       375        41        42       443
         4       250       251       252       753
         4       224        87       228       225
         4       226       216       446       254
         4       226       268       433        33
         4        36       173        42       177
         4       589       588       669       592
         4       388       666       591       589
         4        68       268       409       266
         4       180       476       536       385
         4        36       179       177        42
         4       409       192       275       190
         4       525       392       612       496
         4        68        33       268       226
         4       178       176       191        36
         4       304       305       708       542
         4       242       553       555       535
         4       110       113        74       141
         4        64        65       396       242
         4       376       459       499       159
         4       215       446       227       439
         4        90       303       505       506
         4       504       196       194       570
         4       680       305       681       566
         4        68       226       216        33
         4       407       572       615       408
         4       536       476       192       409
         4       182       261       185       288
         4        85       555        83       498
         4       110        77       677       299
         4       224        80        69        68
         4       358       135       420       138
         4       358       635       464       463
         4       499       194       195       731
         4        79       708       304       515
         4       353       640       610       608
         4       528       639       725       133
         4       197       188       740       706
         4       138       420       328        45
         4       525       280       392       496
         4       352       419       138       391
         4       391       697       611       419
         4       313       687       727       513
         4       146       209       700       701
         4       136       138       135       358
         4       309       538       509       648
         4       750       691       737       456
         4       602       391       601       541
         4       154       217       349       156
         4       696        97       735       414
         4       292       509       538       164
         4       513       309       649       514
         4       696       135       358       414
         4        51        45        47        43
         4        98       104       101       109
         4       520       455       339        13
         4       346       341       523       121
         4       138       420        45       135
         4       443        64        63        65
         4       342        62         3        25
         4       444       149       152       151
         4       444       529       151       532
         4       532       444       529       445
         4       527       655       703       747
         4       508       671       672       707
         4         5       444       527       445
         4       145       423       277       276
         4       395       752       686       126
         4       139       260       214       259
         4        21       527       747       655
         4       223       228       224        80
         4       452       747       527       703
         4       452       444       747       532
         4        51       310       311       751
         4       103       104       139       101
         4       326       528       390       664
         4       525       612       722       496
         4       134       335       496       724
         4        11       456       544       458
         4       102        51       217        60
         4       361       463       358       539
         4       162       159       161       731
         4       505       233       459       436
         4       160       375       217       511
         4       160       511       219       375
         4        43        52        55        49
         4       310        51       160       162
         4        99       160       219       375
         4       238        56        54        53
         4        98       108       100       107
         4       134       276       277       335
         4       457       500       461       494
         4       146       705       466       467
         4       340       486       344       343
         4       206       424       428       427
         4       397       670       657       399
         4       417       152       728       479
         4       465       461       704       462
         4        17        22       416       116
         4        11       458       544       527
         4       169       482       483       656
         4       424       206       430       426
         4       499       219       161       195
         4       206       427       428       718
         4        48       525       280       369
         4        54       525       369       232
         4       382       505       436       300
         4       587       234       616       236
         4       417       479       480       478
         4       551       641       411       500
         4       503       564       196       570
         4       279       333       394       370
         4        16       319       316       321
         4        86       265       684       498
         4       162        51       730       751
         4        86       264       265       498
         4       322       472       475       320
         4        88       269       264       262
         4       624        88       269       265
         4       150       716       621       421
         4       310       162       160       161
         4       160       511       217       310
         4       516       443       219       375
         4       182       183       290       185
         4       219       516       375       511
         4       163       537       538       309
         4        88       265       264       269
         4       213       212       214       254
         4       683       624       736       265
         4       105        81       212       101
         4        32       213        66        31
         4       527       703       655       658
         4       121       337       120       652
         4       120       337       749       652
         4       226       216       433       446
         4       336       344       486       167
         4       409       275       274       190
         4       749       342       337       120
         4       414       342        24       735
         4       342        62       749       735
         4       237       354       627       581
         4       345       561       158       337
         4       137       353       133       524
         4       159       730       626       731
         4       129        44       135        45
         4        25       364       319        11
         4         3       342        24       414
         4         8         9       661        10
         4        46       138       328        45
         4       423       149       334       150
         4       355       581       712       610
         4       127       660       686       325
         4       382       505       303       506
         4       279       277       333       280
         4       279       277       149       334
         4       616       734       617       572
         4       527       703       658       691
         4       569       407       572       236
         4       236       614       613       235
         4       129        44        54        48
         4       254       401       214       215
         4       254       401       212       214
         4       436       614       628       615
         4       213       254       214       215
         4        53       626       730       586
         4       236       585       613       617
         4        42       153        31       375
         4       254       446       227       215
         4       236       617       615       572
         4        79       437        77       299
         4       330       573       574       306
         4        77       743       549       111
         4       236       613       615       617
         4       459       731       568       194
         4       302       681       306       576
         4       423       418       149       150
         4       223       254       227       212
         4       346       453       732       523
         4        12       520       698       619
         4       414        62       735        60
         4       447       449       454       455
         4       200       189       600       596
         4       561       748       714       337
         4       278        47       285       136
         4       199       322       472       475
         4       667       669       386       690
         4        43        50        47        49
         4       198       220       702       740
         4       389       595       248       633
         4       123       423       421       418
         4       429       641       430       210
         4       389       174       173       248
         4       464       357       635       358
         4        66       213        32        68
         4        34       216       215        28
         4        94       266        86        68
         4        65       177        42       323
         4       242       396       241       323
         4       226       224        87        68
         4       155       349       156       154
         4       756       634       405       678
         4       266       268       685       267
         4       396        42       625       729
         4        94       409       192       476
         4       105       484       371       372
         4       192       190       273       275
         4       174       598       248       595
         4        27       475       198        29
         4       153       349       350        39
         4       242       673       317       327
         4        28       216       432        33
         4        58        39       351       155
         4       153       350       247        39
         4       153       154       510       349
         4        34        28        33       216
         4       354       627       581       713
         4       585       587       580       584
         4        58        38       351        39
         4       528       665       640       664
         4       391       138       697       419
         4       601       608       712       606
         4       321       316       692       252
         4       487       321       544       737
         4       661        10       663         8
         4       353       639       713       610
         4       526       692       654       544
         4       316       439       432       215
         4        12       698       577       474
         4       355       608       610       712
         4        28       432       253        33
         4        58        62       351         6
         4       175       202       197       199
         4       375        42       625       443
         4        13       521       520       455
         4       375       154       217       511
         4       346       523       732       652
         4       154       217       511       349
         4       201       492       270       205
         4       475       740       368       473
         4       199        27        37        38
         4       162       751       310        51
         4       108       484       549       393
         4       370       108       393       394
         4       601       611       712       355
         4       525       133       134       724
         4        13       522       521       448
         4       707       699       745       293
         4       291       297       707       165
         4       525       612       392       369
         4       106       159       499       160
         4        51       217       310       160
         4        43        49        47       102
         4       170       294       309       307
         4       295       745       293       707
         4         4       527        21       458
         4       120       351       348        62
         4       749       714       337        24
         4        96       485       695       559
         4         2       342        24         3
         4       351       118        62       120
         4       344       486       167       671
         4       434       631       632       614
         4       530       623       557       531
         4       382       459       504       376
         4       676       675       567       566
         4        76       372       512       113
         4       137       131       391       138
         4       360       403       603       637
         4       117       664       325       326
         4       120       272       348       351
         4       452       527       526       703
         4       447       339       451       450
         4       260       316       439       440
         4       458       658       691       527
         4       338       726       687       314
         4        16       526       527       544
         4       168       456       167       486
         4       342        24       735       749
         4       192       668       275       273
         4       260       215       439       316
         4       389       176       666       629
         4       489       522       523       491
         4       186       474       577       188
         4       321       544       737       692
         4       360       403       404       636
         4       135        60       735       312
         4        51        45       311       312
         4       734       585       584       587
         4       352       583       586       419
         4       135        45        60       312
         4        46       586       328       419
         4       138       419       420       697
         4       355       611       712       583
         4       215       214       439       401
         4       213       212       101       214
         4       254       227       401       215
         4        26        33       190        71
         4       213       254       215       216
         4       171       533       534       645
         4       364       320       365       472
         4        49        52       106       102
         4       314       533       645       726
         4        99       154       217       375
         4       281       554       283       553
         4       444       418        21       152
         4       245       543       744       644
         4       495       558       651       240
         4       444       418       152       149
         4       418       149       150       152
         4       507       543       644       623
         4        20       478        21       418
         4       417       480       479       728
         4       693       648       649       513
         4       337       561       748       727
         4       423       334       149       277
         4       131       326       528       390
         4       482       658       655       481
         4       308       513       453       514
         4       538       514       647       649
         4       469       508       295       315
         4       232       627       713       612
         4       163       546       647       547
         4        62        25         6         3
         4       297       291       344       296
         4       309       649       514       538
         4       562       563       650       564
         4       503       570        91       564
         4       506       563       542       543
         4       573        91       575       650
         4       135       329       420        45
         4        82       372       484       105
         4       231       235       436       233
         4        51       312       310        60
         4       303       306       542       573
         4       230       630       631       612
         4       330        92       574       575
         4       506       650        91       573
         4        90        93        91       570
         4       131       124       132       395
         4       438       245       543       708
         4       555       242       535        84
         4       108       109       484       394
         4       370       108       394       109
         4       266       683       267       685
         4       200       189       596       597
         4        43        46        51        45
         4       674       736       690       689
         4       107       231        55       230
         4       163       647       546       538
         4       376       243       218       499
         4       466       756       705       700
         4       484       549        82       108
         4       108       105       484       109
         4       256       255       283       257
         4       109        98       108       105
         4        99       375       217       160
         4       281       553       283       284
         4       535       554       281       553
         4       144       123       116        17
         4       541       602       697       637
         4       601       605       608       604
         4       500       550       413       551
         4       134       277       276       278
         4       207         7       518       211
         4       140       149       444       529
         4       127       428       686       660
         4       395       686       752       725
         4       134       335       752       276
         4       424       127       128       206
         4       115       211       209       210
         4       361       467       485       146
         4         3       414        62       342
         4       444        21       747       152
         4       118       364       472       319
         4       279       149       151       334
         4       279       529       733       151
         4       260       402       441       214
         4       193       495       531       246
         4       260       215       214       439
         4       101       214       105       259
         4       254       212       401       227
         4       216        33       433       432
         4       203       205       271       247
         4       255       383       256       688
         4       384       389       629       181
         4       106       499       159       376
         4       389       595       638       666
         4       375       516       625       511
         4       213        80        63        81
         4        29       251       702       253
         4       445       140       529       139
         4       174       205       248       598
         4       153       154       349        39
         4        51        45       312        60
         4       507       623       563       543
         4       236       234       235       237
         4       382       303       505       300
         4       506       573       542       563
         4       160       219       511       161
         4       314       726       648       533
         4       314       171       533       315
         4       465       646       560       338
         4       139       260       259       445
         4       106       159       160       162
         4       309       509       533       648
         4       308       451       453       345
         4       235       614       631       434
         4       585       234       587       236
         4        60       156       310       217
         4       337       732       727       748
         4       493       492       578       488
         4       213       212       254        80
         4       490        15       577        12
         4       105       214       401       371
         4       156       312        60       310
         4       203       205       270       271
         4       237       585       581       627
         4       161       160       310       511
         4       356       420       138       358
         4       494       556       398       483
         4       338       171       158       470
         4       325       124       126       117
         4       528       665       725       640
         4       114       128       116       123
         4       660       661         9       665
         4       495       558       557       620
         4       135       735       414       696
         4        47        51        60        45
         4        73        74       381        82
         4       193       558       196       557
         4       735        60        62       156
         4       451       453       523       448
         4        13       448       523       522
         4       342       120       749        62
         4        15        13       521        14
         4       568       505       570       407
         4       482       458        21       655
         4       236       233       616       569
         4        79        75       229       515
         4        96        24       714        97
         4        57        61         6        59
         4       662       663       741       682
         4       325       686       725       665
         4        24       714        97       735
         4       190       274        33        29
         4       338       711       646       710
         4       126       679       752       686
         4        95       561        24       337
         4       200       186       189       204
         4       279       394       333       733
         4       361       466       635       468
         4       559       695       561       710
         4       703       544       526       654
         4        28        30       316        34
         4        98       100       108       105
         4       317       673       553       284
         4       139       526       316       260
         4       116        17        22       144
         4       458       527        21       655
         4       709       705       701       467
         4       255       633       318       282
         4       146       701       642       209
         4       376       107       106       100
         4       323       327       317       324
         4        98        49       102       104
         4        64       396       240       241
         4       338       646       711       726
         4       323       324       318       729
         4       485       695       710       467
         4       559       561        95       158
         4        65       396        42       443
         4       182       228       288       289
         4       338       645       646       726
         4        84       380       555       379
         4       228       415       288       289
         4       222       289       512       415
         4       340       363       343       341
         4       169       656       458       482
         4       530       378       622       623
         4        62       735       156       347
         4       643       673       379       327
         4       530       244       644       245
         4       117       517       660       659
         4       360       541       636       659
         4       314       648       726       693
         4       397       469       167       508
         4       144       358        97       539
         4       170       315       171       314
         4       687       711       693       726
         4       338       687       726       711
         4       471       279       529       733
         4        47        45        60       135
         4        73       221       246        79
         4        54       232       354       524
         4       531       563       623       562
         4       155       351       348       497
         4       279       109       394       471
         4       285       277       149       279
         4       144       136        18       358
         4       377       327       620       643
         4       557       622       562       623
         4       239       377       241       495
         4       560       467       701       146
         4       214       402       371       259
         4       529       140       109       139
         4       109       259       471       529
         4       260       445       441       402
         4       259       402       471       529
         4        16       526       544       321
         4       636       723       406       746
         4       659       660       664       665
         4       636       746       406       741
         4       659       661       605       662
         4        74       111       549       113
         4         9       718         7       428
         4       359       466       634       635
         4        57       217       156        60
         4         9       428         7       660
         4       115       207       122       117
         4       359       756       678       634
         4       217       102        61        59
         4       429       210       430       128
         4       381       393       549       743
         4       276       335       334       277
         4       458       691       658       750
         4        82       484       372       549
         4       444       149       151       529
         4       125       126       621       276
         4       359       700       678       756
         4       146       701       700       705
         4       462       398       653       534
         4       469       398       534       502
         4       343       717       297       619
         4       672       745       400       502
         4       307       344       336       294
         4       526       316       692       321
         4       105       259       371       109
         4       526       260       445       441
         4       477       457       482       483
         4       508       344       167       671
         4       144       124       130       117
         4       539       696       468       463
         4       344       340       343       307
         4        96       714       695       696
         4       127       125       126       679
         4        97       714       696       735
         4       477       457       494       500
         4       487       753       737       367
         4       434       301       614       632
         4       121       491       523       652
         4        62       120       749       348
         4       489        15       490        12
         4       388       638       594       591
         4       177       633       249       318
         4       384       667       629       589
         4       565       366       706       368
         4       409       433       685       268
         4       320       367       368       753
         4       476       265       689       684
         4       486       367       715       717
         4       181       597       629       668
         4       667       385       536       674
         4        11       487       321       544
         4       155       156       347        62
         4       215       432       446       439
         4       460       743       677       632
         4       249       177       318        42
         4        77       743       111       677
         4        85       684       555       498
         4       278       134       277       280
         4         6        11       319        16
         4        88       267       269       263
         4       508       297       671       707
         4       103       140       139       104
         4       109       471       371       484
         4       299       677       676       680
         4       747       444       452       527
         4       289       182       222       143
         4       182       184       721       183
         4       515       142       721       744
         4       141       143       112       113
         4       105       101       259       109
         4       394       279       471       733
         4       110       676       675       567
         4        66        63        72        64
         4       382        79       376       246
         4       149       150       151       334
         4        56       235       230       231
         4       112       143       142       755
         4       235       631       627       612
         4       382       505       504       459
         4       436       300       614       434
         4       300       628       614       301
         4       459       568       731       159
         4       304       566       305       680
         4       159       731       626       568
         4       303       299       300       438
         4       472       473       320       365
         4       330       576       332       302
         4       119       272       270       491
         4       475       368       740       251
         4       490       270       488       491
         4        40       247       248       205
         4         1        23        95         2
         4        90        92        93       442
         4       330       303       573       306
         4       382       303       300       438
         4       531       557       196       564
         4       156       310       217       349
         4       320       368       251       753
         4       475       198       740       197
         4       223       373       415       512
         4       499       161       731       195
         4        74        82       372       549
         4         8       660         9         7
         4       117       325       664       660
         4       505       459       570       504
         4       663       682       662       517
         4       434       435       460       231
         4       743       393       630       460
         4        74        77       381       549
         4       422       728       431       410
         4       221       245       246        79
         4       430       424       431       429
         4       126       621       752       679
         4       243       240       495       239
         4       429       431       410       422
         4        17       149       418       444
         4       178       181       192       191
         4       240       443       219       516
         4       199       475       473       197
         4       243       443       219       240
         4       351        62       155       348
         4       163       618       166       546
         4       500       552       550       494
         4       500       480       410       552
         4       500       410       411       413
         4       480       479       410       552
         4       124       395       126       276
         4         1         3        17         5
         4       487       367       737       715
         4       399       398       754       556
         4       397       502       398       469
         4       421       418       150       152
         4       397       671       670       672
         4       397       672       400       502
         4       234       626       586       587
         4       486       167       715       456
         4       120       652       749       348
         4        12       565       339       619
         4       580       234       587       585
         4       163       547       647       537
         4       529       109       279       471
         4       296       619       339       343
         4       172       346       337       121
         4       307       341       339       451
         4       291       707       293       699
         4       294       292       295       509
         4       233       159       568       459
         4       197       220       740       188
         4         3        60        62       414
         4       667       690       386       674
         4        28       215       432       216
         4       279       733       334       151
         4       105       371       484       109
         4       241       651       620       327
         4       601       607       604       606
         4       580       583       587       586
         4        28       316       432       215
         4       355       712       581       583
         4       361       485       468       539
         4       207         7       122       660
         4       601       391       602       611
         4       276       334       335       621
         4       611       583       582       712
         4        88       268       267       263
         4       580       583       584       587
         4       352       611       583       419
         4       156       735       312       347
         4       611       606       712       582
         4       312        60       735       156
         4       261       262       185       288
         4       182       287       183       286
         4       182       288       185       290
         4       182       286       721       229
         4        89       184       742       721
         4       382       504       438       246
         4       182       286       229       222
         4       140       279       529       109
         4       201       205       598       492
         4       201       600       492       598
         4       201       492       600       187
         4       596       200       595       600
         4        29       253       702       274
         4        16       445         5       527
         4       331       332       628       302
         4       298       680       305       681
         4       527       445       444       452
         4       729        42       625       153
         4       445       452       532       444
         4       525       496       722       724
         4       414       135        60       735
         4       739       135       696       735
         4       234       626       587       616
         4        20       416       417       418
         4       234       233       159       626
         4       480       728       410       479
         4       580       584       581       585
         4        48       369       280       370
         4       421       728       152       150
         4       482       458       658       656
         4       237       613       585       627
         4        23       171       462       465
         4       587       616       734       617
         4       656       750       658       657
         4       598       492       579       600
         4        35        39       153        40
         4       148       465       642       146
         4       469       534       398       462
         4       169       482        20       457
         4       153       510       350       349
         4       421       716       728       150
         4       259       529       445       402
         4        15        12        14       577
         4        24       749       714       735
         4       474       565       706       473
         4       493       187       577       578
         4        12       698       520        14
         4       491       490       270       202
         4       659       665       605       661
         4       117       357       541       326
         4       659       604       605       541
         4       127       660       122       428
         4       493       577        15       578
         4       474       473       706       197
         4       127       679       686       428
         4         1        20         4        21
         4       580       237       585       581
         4       200       189       597       204
         4       163       537       618       547
         4       478       418       152        21
         4       216       215       446       254
         4       339       619       694       520
         4        25       118       121       120
         4       351       272       348       497
         4       565       473       368       706
         4       526       654       452       703
         4       344       717       671       297
         4       345       453       727       732
         4       559       710       561       687
         4       167       750       670       715
         4       119       652       272       491
         4       145       149       277       423
         4        21       655       747       152
         4       316       432       440       252
         4        33       274       433       253
         4       157       469       171       315
         4       191       273       597       668
         4       124       325       126       395
         4       683       385       689       674
         4       757       695       696       468
         4       758       759       761       760
         4       759       762       764       763
         4       765       761       760       766
         4       761       762       759       767
         4       759       765       768       762
         4       769       770       772       771
         4       773       774       776       775
         4       777       778       774       776
         4       775       779       781       780
         4       776       775       782       773
         4       775       782       783       780
         4       775       784       779       785
         4       783       782       773       786
         4       775       773       774       784
         4       787       788       790       789
         4       787       788       792       791
         4       787       793       792       794
         4       787       794       796       795
         4       797       798       800       799
         4       801       802       804       803
         4       801       805       807       806
         4       801       806       809       808
         4       801       810       812       811
         4       801       804       805       808
         4       801       813       808       809
         4       814       815       816       794
         4       816       815       817       794
         4       816       815       818       817
         4       816       819       821       820
         4       816       815       819       818
         4       816       820       822       819
         4       823       786       825       824
         4       826       786       823       824
         4       786       783       766       773
         4       786       766       827       826
         4       786       828       783       782
         4       829       830       767       821
         4       829       830       831       767
         4       832       829       834       833
         4       832       767       829       831
         4       835       834       833       836
         4       837       834       829       833
         4       767       762       763       830
         4       830       763       821       838
         4       829       767       837       821
         4       839       840       842       841
         4       829       830       821       843
         4       829       830       843       831
         4       830       767       844       831
         4       845       571        93       442
         4       830       821       843       846
         4       847       848       850       849
         4       847       851       853       852
         4       847       853       850       811
         4       847       852       854       851
         4       847       855       805       804
         4       805       852       847       801
         4       856       857       798       858
         4       850       859       811       853
         4       811       810       860       819
         4       861       463       464       635
         4       801       804       802       847
         4       852       801       811       847
         4       801       812       807       811
         4       812       862       811       860
         4       863       864       865       844
         4       866       727       748       561
         4       867       868       870       869
         4       759       763       764       871
         4       830       763       767       821
         4       872       873       869       870
         4       874       838       863       846
         4       830       763       838       762
         4       759       768       876       875
         4       877       878       880       879
         4       759       768       875       764
         4       759       764       762       768
         4       815       881       883       882
         4       884       885       887       886
         4       881       803       889       888
         4       889       819       881       890
         4       819       882       889       881
         4       881       882       891       883
         4       881       802       891       882
         4       881       802       803       892
         4       893       894       896       895
         4       897       894       896       760
         4       894       760       893       896
         4       893       898       876       760
         4       899       876       893       898
         4       763       764       900       762
         4       759       760       758       896
         4       761       759       762       765
         4       764       768       902       901
         4       764       903       904       900
         4       787       815       794       817
         4       816       822       818       819
         4       838       816       905       821
         4       816       821       819       905
         4       882       815       819       905
         4       819       881       815       882
         4       794       816       814       906
         4       792       787       817       907
         4       787       815       890       796
         4       787       907       818       817
         4       650       575       908        91
         4       893       769       772       909
         4       894       909       760       766
         4       894       910       897       911
         4       894       909       766       912
         4       897       910       894       912
         4       913       914       915       887
         4       916       917       919       918
         4       917       920       916       921
         4       917       920       922       918
         4       917       923       924       919
         4       770       491       272       652
         4       925       926       823       927
         4       925       928       926       856
         4       925       926       927       929
         4       925       930       932       931
         4       925       930       931       927
         4       925       932       930       933
         4       934       777       936       935
         4       934       777       937       936
         4       819       938       818       889
         4       816       905       814       838
         4       815       818       890       819
         4       819       860       821       820
         4       819       822       938       860
         4       811       862       821       860
         4       801       852       807       805
         4       779       939       941       940
         4       784       774       937       942
         4       775       777       776       781
         4       784       785       944       943
         4       784       937       941       939
         4       896       834       911       897
         4       896       834       897       758
         4       945       946       948       947
         4       911       945       835       949
         4       945       950       911       835
         4       945       835       951       950
         4       952       953       950       954
         4       952       950       948       954
         4       955       956       958       957
         4       959       946       952       960
         4       961       962       828       963
         4       945       960       835       949
         4       934       964       955       937
         4       774       934       778       777
         4       934       957       955       964
         4       934       965       935       966
         4       778       967       965       823
         4       776       774       777       775
         4       937       774       777       934
         4       927       965       778       934
         4       934       927       968       957
         4       896       895       949       969
         4       949       970       971       960
         4       949       960       972       970
         4       945       952       960       949
         4       949       835       972       960
         4       896       895       911       949
         4       896       972       911       834
         4       947       973       946       974
         4       945       849       946       947
         4       947       975       948       854
         4       947       974       977       976
         4       955       467       958       709
         4       810       819       889       938
         4       838       814       979       978
         4       980       981       983       982
         4       830       838       821       846
         4       978       900       762       838
         4       846       838       821       816
         4       984       985       987       986
         4       838       762       979       863
         4       844       762       767       830
         4       763       767       821       988
         4       893       896       969       895
         4       769       989       770       771
         4       989       895       769       770
         4       769       895       969       770
         4       893       895       969       769
         4       893       909       760       894
         4       830       863       762       838
         4       838       990       905       814
         4       838       846       830       863
         4       834       767       758       896
         4       844       831       761       991
         4       762       767       763       759
         4       992       878       879       993
         4       801       807       852       811
         4       881       802       882       889
         4       804       801       803       813
         4       810       802       801       803
         4       802       882       889       810
         4       961       994       996       995
         4       961       997       998       994
         4       860       810       938       819
         4       999       873       886       887
         4       821       853       862       811
         4       860       810      1000       938
         4      1001      1002      1004      1003
         4       817       816       794       906
         4       815       905       990       814
         4       814       978      1005       979
         4       814       794       906      1005
         4       814      1006       990       794
         4       951       836       851      1007
         4       950       945       911       952
         4       851       836       833      1007
         4       835       851       837       945
         4       835       837       834       972
         4       835       837       833       834
         4       874      1008      1010      1009
         4      1011       836       834       911
         4      1012       765       760       766
         4      1012      1013       768      1014
         4      1012       773       826       766
         4      1012       773       760      1015
         4      1012       826       774      1014
         4      1012       765      1014       768
         4      1016      1017      1019      1018
         4      1016       807       812      1020
         4      1021      1022      1024      1023
         4      1025      1016       839       842
         4      1016      1026      1027       839
         4      1016      1020       812      1027
         4      1028      1029      1030       920
         4      1028       901      1032      1031
         4      1028      1029      1032      1030
         4      1028       903      1034      1033
         4      1028       916      1033       920
         4      1028       904       903       916
         4      1035       823       967       825
         4       759       768       760       876
         4       967      1036       965      1037
         4       967      1036      1035      1038
         4       782       775       783       773
         4       786       825       824       782
         4       782      1039       825      1040
         4       997      1039       782      1040
         4       967       823      1037       965
         4      1039       967       997       782
         4       786       778       967       776
         4       786       824       828       782
         4       492      1041      1042       598
         4      1043      1044      1045       284
         4       579       492      1047      1046
         4      1048       488       270      1049
         4       492       868      1046       578
         4      1048      1050      1042      1041
         4      1048      1050      1046       867
         4       884       912       910      1051
         4       805      1052       806       808
         4       953       895       989       770
         4       895       910       953       989
         4       769       909      1053       771
         4       910       912       999       989
         4      1054      1055      1000      1056
         4      1057      1058      1060      1059
         4       840      1061      1054      1062
         4      1056      1054      1064      1063
         4      1065      1000      1066       840
         4      1000       840      1054      1066
         4      1054      1063      1000      1066
         4      1067      1043      1069      1068
         4      1054      1064      1070      1062
         4      1054      1063      1066      1071
         4      1072       872      1074      1073
         4      1075       872      1072      1073
         4      1072       779      1076       940
         4       974      1077      1079      1078
         4      1072       940      1080       943
         4      1072      1053       785      1081
         4       909       773       766       783
         4       769       989      1053       912
         4       909       912      1053       785
         4       909       785       771       944
         4       909       785       773       783
         4       909       773       785       944
         4      1082      1083      1085      1084
         4      1082       788       890       789
         4      1082       889      1087      1086
         4      1082      1088       907       788
         4      1089      1090      1091      1007
         4      1082       818       890       788
         4      1092      1082      1086      1085
         4      1082       818       788       907
         4      1082      1093       889       818
         4       900      1094       990      1006
         4       764      1013       902       768
         4       900      1095       903       904
         4       900       905      1096       871
         4       900       978       903      1006
         4      1006       794      1098      1097
         4      1006      1005       978       903
         4      1006       990       794       796
         4       814      1006      1005       978
         4       767       837       972       834
         4       829       834       767       832
         4      1099       880      1101      1100
         4       837      1090       843       853
         4       847       945       851       854
         4       837       851      1090       853
         4       835       851       833       837
         4       864       765       762       901
         4       901       864      1102      1001
         4       765       768       762       901
         4       765       762       761       864
         4       765       766       826      1103
         4       765       901      1102      1104
         4      1103       826       765      1105
         4      1106      1107      1109      1108
         4       765       902      1104      1014
         4       761       759       765       760
         4       901      1030      1032      1110
         4       901      1104      1110      1111
         4       808      1060      1112      1059
         4       901      1104      1111      1102
         4       764       762       768       901
         4       779       995       877      1113
         4       775       779       941       781
         4       779       780       995       781
         4       779       940      1114      1113
         4       775       781       776       780
         4       779       941      1114       940
         4       829       837       843       821
         4      1115       767       758       834
         4       905       763       838       821
         4       767       837       988       972
         4       945       837       835       960
         4       837       859       850       853
         4       767       837       821       988
         4       860       821       820       862
         4       821       853       843       862
         4       933       920       921      1116
         4       925       933       930      1014
         4       930       933       861      1014
         4       925       926      1110      1104
         4       925      1014       930       927
         4      1028       933       904       920
         4       917       932       920       933
         4       925      1030       932       933
         4       837       851       833      1090
         4      1023      1117      1119      1118
         4       945       847       851       850
         4       851       853       852      1090
         4       847       850       853       851
         4       620       643      1058       622
         4       804       848      1121      1120
         4       804       848      1067      1121
         4       804      1122       808      1057
         4       804      1123      1057       803
         4       804       803      1057       813
         4       847       802       801       811
         4       804      1052      1067       855
         4       849       847       945       850
         4       802       803       892      1120
         4       847       802       850       848
         4       805       806      1052       855
         4       801      1124       806       807
         4      1125       849       946       960
         4       849       946      1126      1125
         4       848       850       849       960
         4       847      1067       848       849
         4       855       847       854       849
         4       946      1125       960       959
         4       898       348       749       652
         4       945       960       946       849
         4       850       837       945       960
         4      1081       732       453       523
         4       847       848      1067       804
         4       855       977       947       975
         4       849      1126       946       973
         4       976       947      1068      1127
         4      1128       852       807      1129
         4       805       855       852       807
         4       847       854       852       855
         4       852       855       854      1128
         4       811       802       810       882
         4      1016      1018      1124       807
         4       807      1020      1089      1130
         4       807      1020      1129      1089
         4       807      1020      1018      1129
         4       807       855       852      1128
         4       801       810       813      1124
         4       992       780       912       963
         4       780       963       783       912
         4       783       766       912      1131
         4       780       912       783       785
         4      1053       780       785       912
         4       786       783       827       766
         4       961       780       995       963
         4       775       783       785       780
         4       909       766       773       760
         4       909       783       766       912
         4      1072       779       785       780
         4       780       912      1053       992
         4       775       783       773       785
         4       775       784       941       779
         4       782       780       776       961
         4       775       780       776       782
         4       819       938       822       818
         4       938      1063      1093      1000
         4       816       814      1132       874
         4       938      1133       889       810
         4       938      1134       822       818
         4       938      1063      1056      1134
         4       860      1000       810       812
         4      1021      1084      1083      1088
         4      1135       794      1006      1005
         4       881       819       815       890
         4       938       818       889      1093
         4       815       883       990       905
         4       787       815       818       890
         4       787       818       788       890
         4      1020      1129      1137      1136
         4       807       852      1089      1129
         4      1020      1138      1130      1027
         4      1020      1138      1137      1130
         4      1020      1129      1089      1137
         4      1139       927       964       930
         4      1012       774      1140      1139
         4      1014       927      1139       930
         4       930      1139      1014      1141
         4      1139       964       757      1142
         4      1014       930      1141       861
         4       926      1037      1144      1143
         4       926       968      1144      1037
         4      1145      1146      1147       997
         4       925      1110       928      1030
         4       926       928       797       856
         4       926       823      1148      1111
         4       926       823      1037      1148
         4       926       927       929       968
         4       926       856      1143       929
         4       930      1149       931      1150
         4       510      1151       970      1152
         4       925       931       932       929
         4       925       933      1014      1030
         4       933       920      1030       932
         4       917       921      1153       933
         4       933       917       930      1153
         4      1115      1154      1156      1155
         4       952      1157       959      1042
         4       952       911       949       945
         4       971       949      1158       969
         4       896       911       972       949
         4       871       310       719      1159
         4      1160       914       885      1161
         4       949       952       953       911
         4       952       946      1162       948
         4       952      1157      1162       946
         4       788      1088       792       791
         4      1082       890       889       789
         4       788       791       795      1083
         4       787       788       907       792
         4       894       911       895       910
         4       949       960       959       952
         4      1050       952       953      1158
         4       952      1042      1050      1163
         4       952       959      1158      1042
         4       952       953      1163      1050
         4       910       953      1160       911
         4      1160       911       953       950
         4       902      1116       933      1013
         4       933      1116       904       920
         4       917      1164       923       919
         4       920       916      1033       918
         4       920      1030       922      1029
         4       917       916       919       924
         4       917       916       924       921
         4       766       758      1103       761
         4       783       912       963      1131
         4       774       786       826       773
         4       786       827       824       826
         4      1103      1115       766       827
         4       940      1165      1167      1166
         4       766       897      1131      1168
         4       766       758       897      1168
         4       780       961       995       776
         4      1169       587       616       734
         4      1169      1170      1097      1098
         4       558      1123       892       888
         4      1097      1170      1169       616
         4       828       962      1172      1171
         4      1169       586       626       587
         4      1169       616       626      1097
         4       984      1173       986      1174
         4       984      1175      1164      1173
         4       984      1174      1176      1173
         4       984      1177      1178      1175
         4       984      1173      1176      1177
         4      1179      1180      1181      1149
         4      1179      1180      1149      1150
         4      1142      1153      1150       635
         4      1150      1153      1179       635
         4      1182      1183      1153       634
         4      1179      1150       635       466
         4      1179       634       635      1153
         4       812       807       853      1130
         4       811       860       810       812
         4       853      1090       862      1130
         4       946      1184       973      1185
         4      1162       946      1185      1184
         4       973       976      1187      1186
         4       973       946      1125      1126
         4       973       974      1184       946
         4       947       974       976       973
         4       973       976      1186      1184
         4       973      1068      1187       976
         4       973      1126      1188      1068
         4      1012       768      1013      1015
         4      1012      1140      1141      1139
         4      1139       964       927       774
         4       927      1014       823       925
         4       933      1013       861      1014
         4      1014       774       823       826
         4       765      1014      1104       826
         4      1189       929      1177       932
         4      1190       982      1191       916
         4      1189      1175      1177      1173
         4      1189      1149       931       932
         4      1189      1183      1192      1149
         4       859       882       850       811
         4       819       810       889       882
         4      1193      1103      1102      1194
         4       883       815       882       905
         4      1195       881       883       815
         4       762       864       844       761
         4       765       991       864       761
         4      1031       978       762       979
         4       759       767       988       896
         4       834      1168       897       758
         4       893       896       876       899
         4       894       896       895       911
         4       831      1196      1197      1156
         4       896       897       760       758
         4       836       911       835       834
         4       991      1198      1196      1193
         4      1115       834       758      1168
         4       767       834      1115       832
         4       949       835       911       972
         4       949       952      1158       953
         4       949       953       895       911
         4       970       949       971      1152
         4       947       849       946       973
         4       960       848      1200      1199
         4       960       850       970      1200
         4      1128       855       975       977
         4       953       911       952       950
         4      1139       774       757       964
         4       921       420       861      1116
         4       775       784       785       773
         4       777       784       775       774
         4       943       939       779       940
         4       774      1201       757       964
         4       784       774       942       773
         4       774       937      1201       964
         4       910       999      1202       989
         4       949       953      1158       895
         4       837       988       972       859
         4       829       833       843       837
         4       972       835       837       960
         4       911       897      1011      1051
         4       896       969      1152       899
         4       837       851       850       945
         4       945       851       854       951
         4       804       805      1052       855
         4      1115      1156      1154      1103
         4      1057       888       803      1123
         4       803       810       889       813
         4       803      1120       802       804
         4      1123       888       803       892
         4       969       497       272       271
         4       905       988       883       871
         4       787       790       796       890
         4       821       882       859       811
         4      1051       885      1203      1161
         4       772       348       272       497
         4       762       978       838       979
         4       759       871       988       763
         4       944       748       732       652
         4       900       838       763       762
         4       838       900       990       978
         4       751      1096       731       161
         4       761      1115      1103       991
         4       761       831      1115       991
         4       766      1115      1168       827
         4      1105      1102      1194      1204
         4       860       812      1055      1000
         4       837       853       843       821
         4       816       814       905       815
         4       764       762       901      1028
         4      1191      1205      1206      1190
         4       900       905       871       763
         4      1152       988       896       871
         4      1097       616       568       795
         4       759      1159       871       875
         4       896       988       972       767
         4       988       972      1151      1152
         4       988       883      1151       859
         4       786       783       828       827
         4      1037      1207      1209      1208
         4       823      1037       965       968
         4       967       823      1035      1037
         4       796      1195       731       883
         4       812      1055      1000       839
         4       803       801       810       813
         4       881       802       889       803
         4       803       889       888       813
         4       801       811       802       810
         4       802      1120       891       848
         4       811       807       852       853
         4       805       807       806       855
         4       801       812       810      1124
         4       938      1000      1133       810
         4      1210       813      1133      1124
         4       813      1124       810      1133
         4       814      1006       978       990
         4      1006       903      1095      1211
         4       905       859       883       988
         4      1006       796      1094       990
         4       815       796       794       990
         4      1016      1124      1025       839
         4       812      1130      1212      1027
         4       852       853      1130      1090
         4       807      1020      1130       812
         4       766       758       760       897
         4       773       782       776       786
         4       831      1213      1197      1196
         4       786       766       826       773
         4       823       774      1014       927
         4       823      1037      1148      1214
         4       765       826      1104      1105
         4      1104       765      1105      1102
         4      1036      1144      1207      1215
         4      1036      1038      1216      1035
         4      1036      1038      1218      1217
         4       967      1037      1035      1036
         4       764       904       902      1219
         4      1095       904       900      1219
         4       904       903       916      1095
         4      1028       933      1030       902
         4       933       904      1116       902
         4      1219      1116       902      1013
         4       824       823       826      1105
         4      1036      1037      1207      1144
         4      1037      1220      1207      1144
         4      1037      1209      1143      1148
         4      1037      1208      1214      1035
         4      1037      1143      1209      1220
         4      1037      1035      1207      1208
         4       909       944       898       773
         4       894       897       912       766
         4       773       760      1015       898
         4      1139      1140       757       774
         4       776       786       774       773
         4      1168       758      1115       766
         4       786       778       823       967
         4       826       823       786       774
         4       776       994      1146       997
         4       941       775       781       777
         4       961       783       963       828
         4       599      1221       738      1222
         4       967       776       997       782
         4      1223      1224      1226      1225
         4       786       778       776       774
         4       967       965      1146       776
         4       946       960       945       952
         4       961       997      1040       998
         4       967      1038      1146       965
         4       825       967      1039       782
         4       961       996       962       995
         4       778       777       965       776
         4       961       997       776       782
         4       786       967       823       825
         4        93       569       845      1083
         4      1094       586       328       730
         4      1166       940      1114       941
         4       779       940      1113      1076
         4       940      1227       943       939
         4      1041      1228      1046      1050
         4       940      1099      1114      1113
         4       921       861       464      1153
         4       759       988       767       763
         4       876      1159       759       875
         4       759       760       768       765
         4       894       896       911       897
         4      1012       768       760       765
         4       830       762       863       844
         4       760       896       759       876
         4      1115       758       767       761
         4       896       988       759       871
         4      1028       902       901       764
         4      1028       902      1030       901
         4      1028       933       902       904
         4       903       916      1211      1033
         4       900       762       903       978
         4       904      1028       764       902
         4       764       902      1013      1219
         4      1006      1211      1005       903
         4       903      1034      1005       978
         4       905       763       988       871
         4      1028       903      1031      1034
         4       765      1104       902       901
         4      1006      1005      1211      1135
         4       988       905       821       763
         4      1028      1031       762       901
         4      1006       794      1097       796
         4       960       837       972       850
         4       945       948       946       952
         4       834       911       897      1011
         4       844       831      1196      1213
         4      1221      1047       598      1041
         4      1221      1185      1157      1229
         4      1221      1042       248      1157
         4      1221      1041       598      1042
         4      1104      1111      1102      1105
         4       771       652       944      1081
         4      1221       248       595      1157
         4      1012       768      1015       760
         4       760       761       758       766
         4       764       900      1219      1230
         4       764       900      1230       871
         4       896       767       972       834
         4       764       875      1013       768
         4       768       760       876      1015
         4       837       821       859       853
         4      1012      1141      1013      1014
         4      1028       933       920      1030
         4       864       901       762      1031
         4       969       949       896      1152
         4      1004       864      1102      1198
         4       347       772       899       497
         4       896      1159       876       899
         4       899       347       349      1159
         4       347       876       899       898
         4      1151       850       859       891
         4      1001      1004       800      1003
         4       972       850      1151       970
         4       837       853       850       851
         4       905       883      1096       871
         4       905      1096       883       990
         4       830       863       846       844
         4       849      1199      1067       848
         4      1028      1033      1029       920
         4      1014       902      1104      1030
         4       933      1014      1030       902
         4      1231      1139       930      1141
         4      1030       922       928       932
         4       988      1151       871      1152
         4       815       890       796      1195
         4       951      1007       851       854
         4       847       855       852       805
         4       850       891      1200       848
         4       854       847       945       849
         4      1200       850       848       960
         4       853       811       847       852
         4      1103      1194      1196      1156
         4       960       972       970       850
         4       945       947       948       854
         4       848      1067      1232      1199
         4       804      1067      1122      1121
         4       847       802       848       804
         4       848      1067      1121      1232
         4      1086       564       562      1233
         4       801       808       813       804
         4       852       854      1234      1129
         4       854       852      1128      1129
         4       854      1128       855       975
         4       852       854      1007      1234
         4       802       850       848       891
         4      1212       862      1130       812
         4       850       847       811       802
         4      1123       803       804      1120
         4       975      1234       854      1106
         4       847       855      1067       849
         4       947       855       975       854
         4       807      1129      1018      1128
         4      1007       854       852       851
         4       804       808      1052       805
         4       947       946       948       974
         4       833       835       836       851
         4      1067      1068      1069      1126
         4       849      1067      1126      1068
         4      1067      1068      1052      1043
         4       829       831       833       832
         4      1053       989      1074       872
         4      1072      1053      1081      1074
         4      1040      1172      1236      1235
         4      1072       992       877       780
         4      1053       989       872       999
         4       778       774       823       927
         4       784       866       942       937
         4       784       773       942       944
         4       784       943       866       939
         4      1012       760       773       766
         4       941       784       939       779
         4       780       776       995       781
         4       784       937       777       941
         4      1012      1141      1014      1139
         4       920       932       922      1030
         4       925      1030      1104      1110
         4       917       932      1175       922
         4       888       557       558       620
         4       964      1142      1139       930
         4       930       927      1150       931
         4       930      1149      1153      1175
         4       932       922      1178      1175
         4       881       890      1237       889
         4       787       817       818       815
         4      1083      1082      1085       789
         4      1082       907      1093       818
         4       860       938      1056       822
         4       815       990       883       796
         4       890       889       789      1237
         4       938      1133      1093       889
         4       787       907       788       818
         4       787       794       792       817
         4       989      1238       771      1074
         4       894       769       912       910
         4       894       769       909       912
         4       953       895       770      1158
         4      1049      1202       989       953
         4       989      1238       872       867
         4       989       867      1202      1049
         4       961       776       997       994
         4       778       967       776       965
         4       765       768       902      1014
         4       823       826      1105      1104
         4       925       928       932      1030
         4       927       925       929       931
         4      1014       774      1139       927
         4       925      1014       823      1104
         4       934       927       957       964
         4       927       964      1150       957
         4      1189       931      1192      1239
         4      1189       931      1149      1192
         4      1175      1173      1240      1164
         4      1175       923      1240      1173
         4      1189      1241      1183      1173
         4       917      1175      1164       922
         4       787       815       796       794
         4      1056      1242       820      1243
         4      1086       564      1233      1092
         4       801       805       804       847
         4       814      1005      1132       979
         4       787       796       790       795
         4       990      1094      1096       796
         4       939      1244       687       937
         4       794       795       793      1097
         4      1245      1222      1185      1221
         4      1229      1185      1247      1246
         4      1229       738       638       595
         4       738      1221      1229      1222
         4       847      1067       855       804
         4       638      1246      1229      1247
         4       633      1247       638       595
         4      1247       595      1229       638
         4       894       760       897       766
         4       910       953       913      1160
         4       910      1051       897       911
         4       949       969       895      1158
         4       564       650       562      1233
         4       893       894       895       769
         4       888      1058       622       620
         4      1036      1217      1249      1248
         4      1250      1251      1087      1092
         4       973      1184       974       976
         4      1251      1087      1252      1250
         4      1251      1253      1093      1254
         4      1255      1251      1084      1254
         4      1251      1084      1256      1255
         4      1251      1253      1252      1093
         4       912      1053       992       999
         4      1013      1219       420       739
         4       851       852      1007      1090
         4       767       896       759       758
         4       766       826      1103       827
         4       820      1009      1243      1257
         4       960      1199       971       959
         4       893       898       760       909
         4      1012       765       826      1014
         4       834       836      1011       832
         4       988       859      1151       972
         4       933      1014       902      1013
         4       823       774       778       786
         4       786       967       782       776
         4       934       965       966       968
         4       774      1140       942       773
         4      1258      1184      1078      1225
         4      1258      1184      1186       976
         4      1258      1186      1260      1259
         4      1258      1186      1224      1260
         4      1258      1186      1225      1224
         4       944       748       652       749
         4       916      1261      1262       982
         4       982       916      1261      1191
         4      1175       932       917       930
         4       920      1033      1029       918
         4      1190       916      1211       982
         4       903      1034      1033      1211
         4      1028       903      1033       916
         4      1067      1232      1199      1126
         4      1067      1069      1232      1126
         4       947       849       973      1068
         4       852      1234      1089      1129
         4      1068       976      1127      1187
         4       973      1187      1188      1247
         4       973      1068      1188      1187
         4       848      1121      1120      1232
         4      1068      1043      1069      1187
         4      1258      1186      1184      1225
         4       926       797      1111      1148
         4       947       977       974       975
         4       976      1186      1259      1263
         4      1068      1127      1043      1187
         4      1258      1186      1259       976
         4      1258      1259       977       976
         4       976      1187      1186      1263
         4       973      1247      1186      1187
         4       932       928       925       856
         4       930       927       964      1150
         4       774       757      1201       942
         4       802       803       810       889
         4      1223      1225      1264      1246
         4      1223      1265      1266      1187
         4      1223      1265      1187      1186
         4      1223      1265      1246      1264
         4       980       583       584       582
         4       980       583       582       981
         4       980       586       583      1262
         4       587       586       980      1169
         4       980       981       982      1261
         4       980       587       734       584
         4      1169       587       734       980
         4       442      1267        92      1268
         4      1268      1117      1021      1023
         4      1267      1268       908        91
         4      1268      1267       908      1117
         4      1267       609        92       575
         4      1267       609      1118       442
         4      1267      1268        91        92
         4      1269       548      1271      1270
         4      1269      1270      1165      1167
         4      1269      1270       514       547
         4      1269      1270      1099      1165
         4      1269      1271      1099      1270
         4      1269       545      1272       548
         4      1269      1272       545       647
         4      1273       723      1240      1274
         4      1240       723       603      1274
         4      1275      1173      1174      1273
         4      1275      1276       403       406
         4      1169       980      1098      1262
         4      1170       616       795      1277
         4      1170      1277      1279      1278
         4      1280      1074      1073       448
         4      1280      1073      1282      1281
         4      1280       868       870       867
         4      1280       522      1283      1238
         4      1280       521      1283       522
         4      1280       522       448       521
         4      1238       270       488      1049
         4      1238       770       270      1049
         4      1238       771       491       770
         4      1280       872      1074      1238
         4      1280      1074       522      1238
         4      1238       488       522      1283
         4      1280      1238       867       872
         4       867      1050      1202      1049
         4      1048      1049      1050       867
         4       989       867       872      1202
         4      1048       867      1046       868
         4       867       872       869       870
         4      1284      1165      1099      1114
         4      1227       453       514      1270
         4       940      1080       943      1227
         4       940      1227      1285      1167
         4      1227       649       514       513
         4       513      1285      1227      1286
         4      1191       602       919       924
         4      1191      1287      1205       919
         4      1191      1261       611       924
         4      1288       602       611       606
         4      1206      1191       982      1288
         4      1041      1289      1228      1163
         4      1041      1042      1163      1050
         4      1221      1042      1157      1041
         4      1047      1041      1046       492
         4      1221      1229      1157       595
         4      1041      1245      1289      1185
         4      1147      1145       997      1290
         4      1270      1099      1080      1291
         4      1227       939       513       727
         4      1270      1080       453       449
         4      1227      1080       453      1270
         4      1261       924       419       611
         4      1261      1262       583       586
         4       419      1116       924      1261
         4      1261      1262       586      1095
         4       916      1191       924      1261
         4       980       583       981      1261
         4      1191       919      1205      1190
         4       980       983      1098       982
         4       980      1098      1262       982
         4       982      1262      1211      1098
         4      1125       247       249      1199
         4       982      1206      1292      1190
         4      1268      1085      1083      1084
         4      1268      1021      1083       845
         4      1268       570      1083      1085
         4       860       862       820      1242
         4      1268        91       570      1085
         4      1223      1265      1186      1246
         4      1223      1293       594      1264
         4      1265       593      1223      1266
         4      1223      1265       594       593
         4       513      1286       693      1285
         4      1265       594       591      1264
         4      1246      1247      1184      1185
         4      1246      1184      1225      1294
         4      1221       595       599       738
         4      1221      1157      1185      1041
         4      1246       591      1222      1264
         4      1229      1222      1185      1246
         4      1173      1240       986      1273
         4       984       986      1295      1174
         4      1175      1240       923      1164
         4      1173      1276      1241      1183
         4      1173      1177      1241      1176
         4       984      1175      1178      1164
         4       908      1268      1117      1084
         4      1268      1023       845       442
         4      1268      1021      1084      1083
         4      1083        93      1268       845
         4      1268      1083       570        93
         4      1267       575       908      1117
         4       788      1083       789      1082
         4      1085       564       650        91
         4      1085      1092       908      1233
         4      1240      1164       986      1296
         4      1240       923       602       603
         4      1275      1276      1182       403
         4       723      1275      1273      1240
         4      1240       923       919       602
         4      1240      1164       919       923
         4      1287      1240       919       602
         4      1240      1296      1287       919
         4      1057       327      1123      1121
         4      1057       327       620      1123
         4       804      1057      1123      1121
         4       803      1057       813       888
         4      1057      1058       813       888
         4       620      1057      1123       888
         4       804       808       813      1057
         4      1209      1143      1148       798
         4      1148      1214      1204      1105
         4      1148       797       799       798
         4       823      1148      1111      1105
         4      1148      1214      1209      1204
         4       967      1039      1035       825
         4      1175       922      1178      1164
         4      1175      1153       923      1182
         4      1189       932      1177      1175
         4      1183       634      1179      1153
         4      1189      1183      1241      1192
         4      1183      1149      1181      1192
         4       984      1173      1177      1175
         4       984       987      1178      1177
         4      1189      1239      1241      1177
         4       932      1178       922       928
         4      1183       405       634      1182
         4      1275      1182       923       603
         4      1173      1182      1183      1175
         4      1179      1149      1181      1183
         4      1182       923       603       637
         4      1183      1276      1181       405
         4      1183       634       405      1181
         4      1121       324       317       327
         4       976      1263      1127      1187
         4      1187       282      1069      1188
         4      1068      1188      1069      1126
         4      1187      1186      1263      1266
         4      1297      1187      1043      1127
         4      1187      1043      1044      1297
         4      1265      1247       638       633
         4      1265       638      1247      1246
         4      1187       257       282      1188
         4       973      1186      1247      1184
         4      1188      1069      1126       633
         4       258      1265      1266       593
         4      1265      1246      1247      1186
         4      1016      1025      1124      1018
         4       839      1065       840      1000
         4       839      1026      1027      1055
         4       839      1061       840       841
         4       839      1124      1025      1065
         4       860       812      1212      1055
         4      1018       807      1128       806
         4      1018      1107      1128      1129
         4      1018      1124      1298      1025
         4      1016      1019      1025      1018
         4      1016      1020      1299      1018
         4      1016       812       839      1027
         4      1020      1018      1129      1136
         4       807      1124       806      1018
         4      1036       965      1300      1218
         4      1038      1216      1290      1301
         4      1038      1039      1216      1035
         4      1038      1302      1301      1290
         4      1038      1303      1302      1146
         4      1036       965      1218      1038
         4      1038       965      1218      1303
         4       967      1038      1039       997
         4       770      1158       969       271
         4       953      1049      1158       770
         4      1238       491       771      1074
         4       770       771       491       652
         4       652       770       771       772
         4      1238       770       491       270
         4       770      1158       271       270
         4      1021       791      1083       845
         4      1024      1021       845       791
         4      1268       845      1023      1021
         4      1304      1021      1088      1084
         4      1021      1024      1304      1088
         4      1021      1084      1119      1117
         4      1088      1304      1084      1254
         4      1021      1084      1022      1119
         4      1099      1080      1291      1101
         4      1269      1271      1272      1165
         4      1269      1099      1271      1165
         4      1099      1114      1113      1100
         4      1165      1114       940      1099
         4      1099      1101       880      1076
         4      1099      1305      1284      1100
         4      1099      1100      1271      1305
         4      1106      1306      1307      1234
         4      1106      1259       977      1308
         4      1106      1079      1308       977
         4      1106      1129      1128      1107
         4      1106      1259      1309      1128
         4      1106      1109      1308      1108
         4      1106       975      1307      1079
         4      1186      1263      1260      1259
         4       856      1143       929      1310
         4       926       856       797      1143
         4       856      1311      1310       929
         4       856      1311       929      1177
         4       856      1312      1313       858
         4       856      1312       858      1310
         4       856       928       857      1314
         4       968       927       934       965
         4       964      1150       957       955
         4      1150       958       957       955
         4       898       749       348       347
         4       705      1150       466       467
         4      1150       931       957      1315
         4      1150       957       958      1315
         4      1106      1259      1128       977
         4      1259      1308      1316       977
         4      1259      1128      1127      1317
         4      1259      1127      1263      1317
         4      1258      1260      1316      1259
         4      1064      1063      1054      1071
         4      1071      1054      1064      1070
         4      1063      1093      1000      1066
         4       938      1063      1134      1093
         4      1063      1056      1318      1064
         4       804      1123      1120      1121
         4       804      1121      1122      1057
         4      1122      1057      1121       327
         4       832      1156      1197      1319
         4      1121       651       327      1123
         4      1122       327      1121       317
         4       673      1122       317       327
         4      1121      1120      1232       324
         4      1121       324       651      1120
         4      1275      1240       603       923
         4       984       987       985      1178
         4       984      1164       985       986
         4       923      1173      1175      1182
         4       979      1320      1010      1008
         4      1275      1173      1273      1240
         4       984       986       987      1295
         4      1177      1313       987      1178
         4       932      1175      1178      1177
         4      1189      1177      1241      1173
         4       984      1176       987      1177
         4       929      1177       932       856
         4      1177       856      1178       932
         4      1036      1144       968      1037
         4      1144      1215      1310      1220
         4      1036       965       968      1300
         4       968      1144       929       926
         4      1144       929      1300       968
         4       776      1146       777       965
         4       997      1302      1146      1038
         4      1146      1321      1322       781
         4       997      1038      1039      1290
         4       776       994       995       781
         4      1146       781       777      1321
         4      1246      1225      1184      1186
         4      1258      1225      1323      1224
         4      1069      1043       284      1044
         4      1069      1122       317      1043
         4      1067      1069      1043      1122
         4       976      1259       977      1127
         4       947       948       975       974
         4      1069      1043       317       284
         4      1188      1247       633      1126
         4      1069      1126       633       318
         4      1302       997      1290      1038
         4       997      1039       998      1290
         4       961       994       998       996
         4       776       781       777      1146
         4       994       995      1324       996
         4      1063      1134      1325      1318
         4      1063      1093       907      1134
         4      1254      1304      1325       907
         4      1326      1255      1253      1327
         4      1022      1255      1326      1327
         4      1134       822      1328      1243
         4      1022      1021      1304      1084
         4      1251      1084      1092      1256
         4      1082      1251      1084      1092
         4       835       836       950       911
         4       940      1113      1076      1099
         4       939       784       943       779
         4      1329      1113      1114      1330
         4      1168      1155      1331      1203
         4       940      1165      1166      1114
         4       954      1332      1333      1077
         4      1330      1114      1284      1100
         4      1114      1321       941       781
         4      1114       781      1329      1321
         4      1113       880       879       877
         4      1099       880      1100      1113
         4      1113      1330      1334      1100
         4      1114      1113      1329       781
         4       779      1114       941       781
         4      1334      1329      1330      1113
         4      1099      1271      1101      1291
         4      1074      1080      1081      1072
         4      1080       448      1073      1074
         4       523      1080      1081      1074
         4      1080      1081       453       523
         4      1227       727       943       939
         4      1114      1284      1165      1166
         4       547      1269      1270       548
         4      1270      1291      1271      1099
         4       940      1270      1165      1099
         4      1080      1081       943       453
         4      1080      1073       448      1291
         4       832      1155      1156      1319
         4       602       603       607      1274
         4      1280      1281       448      1073
         4      1048       868       488       867
         4       872      1053      1075      1072
         4      1238       867      1049       488
         4       989      1074       872      1238
         4      1265      1187      1188       258
         4      1188       633       282      1069
         4      1247      1157       595       248
         4       973      1125      1157      1247
         4       973      1247      1126      1125
         4      1246      1294      1185      1184
         4      1229      1247      1185      1157
         4      1082      1086      1087      1092
         4      1021      1088       791      1024
         4       788       795       790      1083
         4       788      1083       790       789
         4      1083      1277       845       791
         4       569      1083      1277       845
         4       824      1194      1103       827
         4      1182       923       637      1153
         4       634      1153      1182       637
         4       917       923       921       924
         4       917       933       920       921
         4       916      1261      1095      1262
         4       448       454      1291       521
         4      1116      1261       916       924
         4       916       919      1190       918
         4       916      1116      1095      1261
         4       872       873       870      1282
         4       949       952       959      1158
         4       270       205      1049      1158
         4       868      1048       488       492
         4      1041       492      1048      1046
         4      1042       959       248      1157
         4      1221      1042       598       248
         4       939       693       513       687
         4      1227       943       727       453
         4       784       866       937       939
         4      1227      1080       943       453
         4       940       941      1285       939
         4       939       866       727       943
         4      1086       888      1250      1335
         4      1086       562       564       557
         4      1085       789       196       570
         4      1086       789      1237       196
         4      1085      1083       789       570
         4       889       888      1087      1086
         4       889       789      1237      1086
         4       980      1261       982      1262
         4       982      1098      1292       983
         4       982      1211      1292      1098
         4      1006      1098      1211      1262
         4      1261       982      1288       981
         4      1191       919       602      1287
         4      1261       586       419      1095
         4       884       999       886       887
         4       884       914      1160       913
         4       910       953       911       895
         4       884       999      1336       886
         4      1336       884      1051       912
         4       896       972      1152       949
         4       832       836      1337       833
         4      1337       832      1319      1331
         4       811       882       810       819
         4       832      1338       831       833
         4       832      1156      1155      1115
         4       832      1197      1156       831
         4       832      1331       836      1011
         4      1106      1259      1308      1309
         4      1187      1069       282      1044
         4       854       975       948       951
         4      1259      1309      1339      1308
         4       836      1337      1331       832
         4      1079      1316       974      1078
         4       977       974       975      1079
         4      1259      1316      1308      1339
         4      1164      1178       985       922
         4       932       856      1178       928
         4      1178      1314       985       922
         4      1178      1314       922       928
         4       856       925       932       929
         4      1177       987      1313      1340
         4      1177      1311      1340      1313
         4      1170      1341       793      1098
         4      1169      1098       983      1170
         4      1169       734       983       980
         4      1006      1094       796      1097
         4      1098      1211      1292      1342
         4       448       523      1074      1080
         4      1073      1291      1281       448
         4      1280       870      1282       872
         4       769       771       772       909
         4      1072      1080      1076      1073
         4      1073      1076      1282      1101
         4       919      1190       918      1205
         4      1191       924       611       602
         4       923       697       637       921
         4      1240       602      1274       603
         4       916       919       924      1191
         4       917      1153       921       923
         4      1164       918       922       985
         4      1274      1287       602      1240
         4      1164      1205      1296       919
         4       955      1201       467       710
         4       937       710      1343       711
         4       934       955       957       956
         4       955       467      1201      1142
         4       955      1201       710       937
         4       964       955      1201      1142
         4      1250       888      1344      1335
         4       888       813      1133      1344
         4      1237       892       881       888
         4      1275       603       406       403
         4       888      1087      1086      1250
         4       953      1202       913      1050
         4      1074      1053       872      1072
         4      1042      1049      1158      1050
         4       770      1049      1158       270
         4       766       912      1131       897
         4       867       872      1202       869
         4       947      1127       855      1068
         4      1258       977      1316       974
         4      1106       975      1079       977
         4       946       974      1184      1162
         4       974      1162       948      1077
         4       757       696       714      1140
         4      1163      1228       915      1332
         4       757       468      1231      1142
         4      1189      1177       929      1239
         4      1189       932      1175      1149
         4       774       942      1140       757
         4       779       780       877       995
         4       586      1097      1262      1169
         4      1006       794      1135      1098
         4      1082      1088      1084      1254
         4      1093      1000      1066      1133
         4       938      1063      1000      1056
         4      1088      1083       788      1082
         4       888       558       557      1237
         4       818      1093      1134       907
         4      1082       907      1088      1254
         4      1251      1093      1252      1087
         4       889      1093      1087      1133
         4      1037      1214      1209      1148
         4      1148       797       798      1143
         4       856      1310       858      1143
         4       856      1177      1178      1313
         4       926       925       856       929
         4       856       858       798      1143
         4       926       823       927       968
         4      1056      1134      1243       822
         4      1054      1061      1055      1056
         4       860      1242       820      1056
         4      1000      1056      1055       860
         4      1054      1064      1061      1056
         4      1063      1071      1325      1254
         4      1000      1065      1066      1133
         4      1054       839      1000      1055
         4      1285       693       513       939
         4       876       875       347      1159
         4       938      1093      1134       818
         4      1063       907      1093      1254
         4      1018      1017      1136      1299
         4      1020      1027      1130       812
         4      1106      1107      1108      1129
         4       927       968       957       931
         4      1129       854      1106      1128
         4      1106      1108      1306      1129
         4       837       850       859       972
         4       852      1089      1234      1007
         4      1129      1306      1234      1089
         4       815       883      1195       796
         4       794      1005      1135       906
         4       796      1094      1096       730
         4       794       793       792       906
         4       899       969       350       497
         4       940      1285      1166      1167
         4      1285      1166       941       940
         4      1113       995      1324       781
         4       894       910       895       769
         4       994       781      1324       995
         4      1146       777      1303      1321
         4      1114       941      1321      1166
         4       781       941       777      1321
         4       937       687       561       710
         4       931      1239      1189       929
         4       856      1313      1311      1177
         4       856       798       797      1143
         4      1144       929      1310      1300
         4       929       968      1345      1300
         4       927       968       931       929
         4      1142      1201       695       467
         4       468       635      1142       466
         4       467      1150      1142       955
         4       927       931       957      1150
         4       964       757      1142      1201
         4       961       962       996       998
         4       802       804      1120       848
         4       803      1123       892      1120
         4       881      1237       888       889
         4      1057       813      1058      1059
         4      1057       620       643      1058
         4      1121      1120       651      1123
         4       875      1159       871       719
         4      1057       620       327       643
         4       955       937      1343       956
         4       955       467       709       710
         4       964       955       937      1201
         4       774      1201       937       942
         4      1069       317       282       284
         4      1263      1297      1127      1187
         4      1265      1187      1186      1247
         4      1067      1052      1122      1043
         4      1106      1306      1234      1129
         4      1128      1052      1127      1346
         4      1128      1346      1107       806
         4      1259       977      1127      1128
         4       855      1052      1127      1128
         4      1005      1347      1348      1034
         4      1005      1349      1350       906
         4      1005       906      1132      1349
         4      1005       979      1034      1348
         4      1189      1175      1173      1183
         4       961       782      1040       997
         4       899       350       349       497
         4       928       800      1351      1110
         4       856      1314      1313      1178
         4       928      1029      1351      1314
         4       928       800      1110       797
         4       856       797       857       928
         4       856       928      1314      1178
         4       906       792       817      1352
         4       635      1150      1142       466
         4       906      1135      1353      1350
         4      1005      1132      1320      1349
         4      1094      1262      1097      1006
         4       812      1055      1027      1212
         4       812       839      1027      1055
         4       467       705       958       709
         4      1055      1027      1354      1026
         4      1055      1027      1212      1354
         4      1055      1242      1355      1354
         4      1056      1242      1355      1055
         4      1195       892      1237       195
         4       883       892       516       891
         4       819       818       890       889
         4       787       792       793       791
         4       816       822      1132       817
         4      1082      1251      1254      1084
         4       955       709      1343       710
         4      1039      1040       998      1236
         4       967      1038      1035      1039
         4       967      1146       997       776
         4      1039      1035      1236      1216
         4      1038      1039      1290      1216
         4       997      1040       998      1039
         4      1035      1236      1208       825
         4       934       778       927       964
         4       823      1037      1214      1035
         4       967      1038       965      1036
         4      1036      1207      1216      1248
         4      1037      1214      1208      1209
         4       860       862      1212       812
         4      1027      1354      1138      1212
         4       860      1212      1242      1055
         4      1123       651       327       620
         4      1020      1299      1138      1027
         4      1016       812      1124       839
         4       953      1049      1050      1158
         4      1073       872      1282      1075
         4       989       867      1049      1238
         4      1074       523       491       771
         4       872      1075       873      1282
         4       872       869       873      1202
         4      1242      1257      1355      1354
         4       884      1202       887       913
         4      1202       913       915       887
         4      1202       887       873       999
         4       954      1332       914      1333
         4      1202       913      1050       915
         4       769       910       895       989
         4      1211      1135      1350      1342
         4       900       990       978      1006
         4      1098      1211      1342      1135
         4      1190      1033      1356      1347
         4      1191      1261      1288       611
         4       903      1005      1034      1211
         4       923       924       919       602
         4       916      1190      1211      1033
         4      1042      1050      1158       952
         4      1163      1162      1289      1332
         4      1163       915      1228      1050
         4       952       953       954      1163
         4      1163       913       954       914
         4       953      1163      1050       913
         4       997      1147       998       994
         4       776      1146       994       781
         4      1038       965      1303      1146
         4      1036      1144      1249      1300
         4       965       935      1303       777
         4       926       823      1111      1104
         4       946      1162       948       974
         4      1078      1258       974      1184
         4      1187      1044      1043      1069
         4      1184      1289      1185      1162
         4       974      1316      1258      1078
         4      1223      1266      1186      1187
         4      1184      1185      1289      1294
         4      1069      1126       318      1232
         4      1043      1052      1122      1112
         4      1187      1266      1044       257
         4      1013       861       739       420
         4       329      1219       312       739
         4      1219       739      1013       312
         4      1013      1015       735      1141
         4      1013      1015       875       735
         4      1028       904       916       920
         4       901      1111      1001      1102
         4      1012      1013      1141      1015
         4      1013       312       875      1219
         4       941      1357      1166      1285
         4      1072       940       943       779
         4      1085       196       789      1086
         4      1082      1093       907      1254
         4      1254      1088      1304       907
         4      1088      1358      1304       792
         4       787       789       890       788
         4      1084      1088      1082      1083
         4      1267      1118      1117      1023
         4      1179       634      1181       756
         4      1088       791      1024      1358
         4      1081       771       652       523
         4       652      1081       732       944
         4      1081       453       732       943
         4       940      1167      1165      1270
         4       937       777       774       784
         4       849      1068      1126       973
         4       909       898       760       773
         4       837       843      1090       833
         4       710      1343       711       709
         4       853       843       862      1090
         4       988      1151       883       871
         4      1035       825      1208      1214
         4      1151      1200       891       625
         4      1169       980       983      1098
         4       625      1151      1200       510
         4       950      1359      1360      1333
         4      1151       883       871       511
         4      1200       625       510       729
         4       923       924       697       921
         4      1164       919       918      1205
         4      1268        93       442       845
         4       920       916       918       917
         4      1190       918      1356      1033
         4       920       916       921      1116
         4       918       922      1361      1029
         4       918       922       985      1361
         4      1258      1316       977      1259
         4       918      1361      1356      1033
         4      1258      1225      1316      1323
         4      1016      1017      1362      1019
         4      1265      1246       591       638
         4       973      1157      1185      1247
         4      1063      1066      1071      1093
         4       863       865      1008      1009
         4      1199       849      1125       960
         4      1016      1362       842      1019
         4       849       854       855       947
         4      1068      1069      1188      1187
         4      1231       463       468       696
         4      1125       959       247      1199
         4      1212       862      1363      1090
         4       984      1164      1178       985
         4       739       312       735      1013
         4      1247       248       633      1125
         4      1126      1199       249       318
         4       974      1079      1077       948
         4       488       868       492       578
         4      1162       954      1077      1332
         4       952       954       948      1162
         4      1120       651       516       625
         4      1184      1078      1289      1162
         4       925       926      1104       823
         4      1072      1075      1076       877
         4       893       772       969       899
         4       973      1185      1157       946
         4       941      1166      1357      1321
         4      1126      1125       633       249
         4       836       835       951       851
         4      1052      1127      1346      1297
         4       855      1128       806      1052
         4      1316      1323      1339      1260
         4      1099      1113      1076       880
         4      1043      1122      1045      1112
         4      1043       317       284      1045
         4       787       791       795       788
         4       449       454       548      1291
         4       788       907       792      1088
         4       796       790       795       568
         4       846      1257      1363      1364
         4       816       814       906      1132
         4      1083       790       789       570
         4      1097       568       626       796
         4       890       789       790      1195
         4      1269       514       647       547
         4      1083       570       568       790
         4      1195       790       194       789
         4      1027      1138      1354      1026
         4      1082      1251      1093      1254
         4       794       796       795      1097
         4      1088       791      1358       792
         4       906       792      1353       793
         4       792      1352      1304       907
         4       792       793      1358      1353
         4       953       913       954      1163
         4       972       970      1152       949
         4       769      1053       989       771
         4       925      1014      1104      1030
         4       884      1160       914       885
         4       867      1050      1046       869
         4       926       928       925      1110
         4       931       957      1315      1345
         4      1150      1315      1149       931
         4      1102       765       864       901
         4      1177      1239      1311       929
         4       892       651       558       516
         4       855      1067      1068      1052
         4      1128      1346       806      1052
         4      1187       282       257      1044
         4       317      1069      1121      1122
         4      1005      1211      1347      1034
         4      1169      1170       983      1278
         4       790       731       194       568
         4      1116       420       328       419
         4       916      1095      1211      1262
         4      1006      1095      1094      1262
         4      1341       793      1098      1342
         4       793      1342      1135      1098
         4       794      1098       793      1135
         4      1230       328       329       311
         4       814       906      1132      1005
         4       312      1013       875       735
         4       906      1349      1350      1353
         4      1095      1230       328      1219
         4       787       795       790       788
         4       906      1135       793      1353
         4      1169       626       616       587
         4      1135       793      1353      1342
         4       862       853       812       811
         4      1016      1124       812       807
         4      1230       310       871      1096
         4       569       845       571        93
         4      1211      1347      1342      1350
         4      1089      1234      1365      1306
         4      1089      1137      1091      1130
         4      1115       827      1103      1154
         4       762       903       978      1031
         4      1115      1168      1154      1155
         4      1115       767       832       831
         4       832      1168      1155      1331
         4       832      1115      1155      1168
         4      1115      1103       991      1196
         4      1115       991       831      1196
         4      1082       889      1093      1087
         4       766       827      1168      1131
         4       813       808       809      1059
         4       801       809      1124       813
         4       813      1133      1344      1210
         4      1000      1133      1124      1065
         4       802       891      1120       892
         4      1265      1187      1247      1188
         4      1162      1185      1157      1163
         4      1223      1293      1226      1224
         4      1225      1224      1226      1323
         4       205      1048       270      1049
         4      1049       205      1042      1158
         4      1280      1238      1283       868
         4      1163       913       915      1050
         4       866       748       944       942
         4      1258      1323      1260      1224
         4       866       943       732       727
         4       866       943       944       732
         4       975      1366      1307      1360
         4       569       845      1277       572
         4      1170      1277       791      1279
         4      1170       791      1358      1279
         4      1277       616       572      1278
         4       777      1321       936      1303
         4       984      1173      1164       986
         4      1076      1282      1101       880
         4       933       921       861      1116
         4      1277       568       616       795
         4       603      1275       723      1240
         4      1277       568       795      1083
         4      1083       791       795      1277
         4       984      1176      1174      1295
         4      1123       892      1120       651
         4       892      1237       195       558
         4       892      1195       881       883
         4      1344      1087       888      1250
         4       881       802       892       891
         4       888       892       558      1237
         4      1201       561       937       942
         4      1273      1367      1368      1174
         4      1201       942       695       561
         4       775       779       780       785
         4       939       937       687       866
         4      1139      1141      1231       757
         4      1201       937       561       710
         4      1240      1164      1296       919
         4       942       944       714       748
         4       866       561       748       942
         4      1036      1249      1215      1248
         4       757      1140       714       942
         4      1231      1153       635       861
         4       934       964       937       774
         4      1125       959      1157       248
         4      1072       943       785       779
         4       893       772       898       909
         4       943       779       784       785
         4      1051       897       912       910
         4      1159       347       349       719
         4      1234      1366      1306      1307
         4      1142       930      1150      1153
         4       779       781       995      1113
         4      1322      1147       994      1324
         4       941       777       936       937
         4       934       955       956       937
         4       934       937       956       936
         4      1146       965      1303       777
         4       854       975       951      1234
         4       804      1067      1052      1122
         4      1052       806       808      1346
         4       811       859       821       853
         4       638       591       738      1222
         4      1259      1317      1260      1309
         4      1264       591      1293       594
         4       854       951      1007      1234
         4       801       805       806       808
         4      1016      1362      1017      1299
         4       806      1346       809       808
         4       801       806      1124       809
         4      1018      1136      1107      1129
         4      1106      1234      1307       975
         4      1141       696       739       463
         4      1223      1293      1224      1266
         4       947       849      1068       855
         4      1129      1136      1108      1306
         4       994      1322      1324       781
         4      1265      1246      1264       591
         4      1223      1266       593      1293
         4       843       833       831      1338
         4       877       878       879       992
         4      1072       877       992      1075
         4      1146       994       781      1322
         4      1265       594       593       258
         4      1113       995       879      1324
         4      1324      1113       781      1329
         4       590      1293       591       594
         4      1259      1263      1260      1317
         4       590       593      1293       594
         4      1113       877      1076       880
         4       926      1148      1143       797
         4       934       957       966       956
         4       769       910       989       912
         4      1082      1251      1087      1093
         4      1233      1092      1250      1086
         4       931       968       957      1345
         4      1139       757      1231      1142
         4      1275       923      1182      1173
         4      1144       926      1143       929
         4      1268        93        91        92
         4      1144      1207      1215      1220
         4      1267      1118       575      1117
         4      1144      1143      1220      1310
         4       797       926      1110       928
         4      1036      1144      1300       968
         4       968       957      1345       966
         4      1244       941       939      1285
         4      1072       780       877       779
         4      1072       940      1076      1080
         4       779       781      1113      1114
         4      1267       575        92        91
         4        92      1267       442       609
         4       995       993       996       962
         4      1267       575      1118       609
         4       779      1113       877      1076
         4       940      1227      1270      1080
         4      1227      1285       513       939
         4       939       941      1244       937
         4      1286      1227       513       649
         4       944       714       748       749
         4      1027      1212      1138      1130
         4      1240      1287      1296      1274
         4       910      1202       913       953
         4      1280       870       868      1283
         4      1138      1091      1212      1363
         4      1212      1091      1090      1363
         4      1212      1242      1363       862
         4      1121      1069      1067      1122
         4       848      1200      1232      1120
         4      1242       862      1257      1363
         4       860       820       822      1056
         4      1056      1355      1064      1061
         4      1242       820      1243      1257
         4      1227       514       649      1167
         4       860      1212       862      1242
         4      1269       547       647       545
         4      1016      1020      1018       807
         4       547      1269       548       545
         4      1269       548      1272      1271
         4      1270       548      1291       449
         4      1020      1089      1130      1137
         4      1268      1085      1084       908
         4       884       885      1051      1160
         4      1117      1268      1021      1084
         4      1085      1084       908      1092
         4      1084      1304      1022      1254
         4      1084      1092      1256       908
         4      1021      1022      1023      1119
         4      1084      1119      1255      1022
         4      1269      1270      1167       514
         4      1199       970       960       971
         4      1113      1100      1334       880
         4       852      1089      1007      1090
         4       937       936      1244      1343
         4       888       622      1335       557
         4       811       819       860       821
         4       808      1112      1060      1122
         4       953       989      1049       770
         4       813      1124      1210       809
         4      1246      1222       591       638
         4       973      1188      1126      1247
         4      1265       594       258       638
         4      1127      1297      1317      1346
         4       837       821       988       859
         4      1170      1278       616      1277
         4      1085       650       908        91
         4      1052      1122      1112       808
         4      1043      1052      1297      1127
         4      1085       564        91       570
         4       817      1328      1349      1352
         4      1096       751       731       730
         4       806      1124       809      1298
         4      1121      1232       317       324
         4       892      1120       516       891
         4      1069      1232       317      1121
         4       620       558       888      1123
         4      1086       557      1335       562
         4       906      1352      1349      1353
         4       974      1162      1078      1184
         4      1120      1232       625      1200
         4       991      1102      1198      1193
         4      1369      1322      1324      1147
         4       649       647      1167       514
         4      1232      1199       318       729
         4      1269       647       514      1167
         4      1270       514       547       449
         4      1270      1080       449      1291
         4      1232      1200       729       625
         4       782       825       824      1040
         4       825      1214      1235      1208
         4       772       652       272       348
         4       825      1214      1105      1235
         4       825      1235       824      1040
         4      1370      1071      1066      1253
         4      1170      1341      1358       793
         4      1170      1098       983      1341
         4      1170      1277       795       791
         4      1227       513       514       453
         4       787       793       795       791
         4       939       687       513       727
         4       788      1088       791      1083
         4      1269      1165       647      1167
         4      1088       792      1304       907
         4       926      1104      1111      1110
         4       310       871       511      1159
         4      1231       861       635       463
         4      1231      1141       463       696
         4      1141       930      1231       861
         4      1231      1142      1153       930
         4      1153      1231       635      1142
         4       982      1292      1206       981
         4       875       735       347       312
         4       881       892       883       891
         4      1230       311       312       310
         4       832      1155      1319      1331
         4      1086      1335       557       888
         4       856       798       857       797
         4      1085      1092       564      1086
         4      1028      1032      1034      1031
         4      1256      1250      1092      1251
         4       564      1092      1085      1233
         4       787       890       789       790
         4      1250      1092      1087      1086
         4      1233      1085       564       650
         4       825      1236      1235      1040
         4       961       828       962      1172
         4      1229      1246       638      1222
         4       871       719       310       312
         4       957      1315      1345       966
         4      1103      1156      1154      1194
         4       961       780       783       782
         4      1039      1290      1216      1236
         4      1081       943       732       944
         4      1072      1076      1075      1073
         4       950       953      1160       954
         4       272       652       772       770
         4       912      1053       999       989
         4      1159       310       719       349
         4      1087      1250      1344      1252
         4       771       652       898       944
         4       816       905       819       815
         4      1021       791      1088      1083
         4      1000      1056      1063      1054
         4      1267       908       575        91
         4      1018      1298      1019      1025
         4       841       840      1062      1061
         4      1268       908        91      1085
         4      1182      1276       405       403
         4      1063      1254      1093      1071
         4       907       817      1352      1325
         4       930      1153      1149      1150
         4      1211      1347      1034      1033
         4       941      1357      1244       936
         4       838       814       874       979
         4       892       516       558       195
         4      1133      1065      1066      1252
         4      1094       328       586      1095
         4      1124       809      1025      1210
         4       794       906      1135       793
         4       794      1098      1097       793
         4       796      1094       730       626
         4      1266       593       257       258
         4      1052      1112      1297      1346
         4       796       731       730      1096
         4       942       714       561       748
         4      1097       796       795       568
         4      1060      1122       327      1057
         4      1057      1060      1122       808
         4      1046      1048       868       492
         4      1018       806      1298      1124
         4       999       878       886       873
         4      1238       488       868       867
         4      1093      1066      1252      1133
         4       892      1120       651       516
         4      1090      1130      1091      1212
         4      1223      1186      1225      1246
         4      1265       638       258       633
         4      1016      1027      1026      1299
         4      1016      1027      1299      1020
         4      1127      1297      1263      1317
         4       862      1090      1212      1130
         4       247      1158       271       971
         4      1163      1162      1185      1289
         4       910      1202       999       884
         4      1041      1289      1245      1228
         4      1012       773      1140       774
         4       770       272       271       969
         4      1106      1307      1308      1079
         4       910       884      1160       913
         4      1036      1207      1248      1215
         4       884       887       914       913
         4       928      1351       800       857
         4       930       861      1153      1231
         4      1053       989       771      1074
         4       949      1158       959       971
         4      1173      1174      1176      1241
         4       921       697       420      1116
         4       917      1175      1153       923
         4       923       602       603       637
         4      1175      1183      1149      1153
         4       921      1153       464       637
         4       968      1345      1300       966
         4      1037      1143      1220      1144
         4      1036       968       965      1037
         4       934       966       957       968
         4      1189      1192      1241      1239
         4       931      1239      1345      1192
         4      1179       635       634       466
         4       823       927       968       965
         4       961       782       783       828
         4       919      1296      1287      1205
         4      1116      1095       328      1219
         4      1116      1095       419       328
         4       917       923      1164      1175
         4      1302      1146      1145       997
         4      1191      1190      1206       982
         4       934       935       956       966
         4       924       921      1116       697
         4       904      1116      1095       916
         4      1133      1087      1344      1252
         4      1021      1024       845      1023
         4      1014       902      1013       768
         4      1073      1281      1291      1101
         4      1269      1272       647      1165
         4       950       948      1333      1360
         4       916       921      1116       924
         4       921       861       420       464
         4      1007      1365      1337       833
         4      1139      1142      1231       930
         4       934       778       964       774
         4      1311       856      1310      1312
         4      1251      1256      1250      1252
         4       797      1111       799       800
         4       928       857       800       797
         4       926       797      1110      1111
         4      1143      1220       858       798
         4      1039       825      1040      1236
         4       827      1172      1235      1154
         4       823      1104      1105      1111
         4      1035      1208      1236      1216
         4       899       349       347       497
         4       955       710      1343       937
         4       828       824       827      1172
         4       937       710       711       687
         4       939       866       687       727
         4       977      1079      1308      1316
         4       866       937       561       942
         4       348       347       497       772
         4       937       687       711      1244
         4      1073      1281      1101      1282
         4       757       714       695       942
         4       941       936      1321      1357
         4      1142       468       467       695
         4       448      1281       521      1291
         4       816       822       820       874
         4      1285      1244      1357      1286
         4       816      1132       822       874
         4       792       791      1358       793
         4      1086       789      1085      1082
         4      1011      1161      1203      1331
         4      1106      1309      1107      1128
         4       940      1270      1099      1080
         4      1170       791       795       793
         4      1096       730       311       751
         4       791      1024      1279       845
         4      1262       586      1094      1097
         4       787       795       793       794
         4       790       570       194       789
         4       861       464       463       420
         4       952      1163      1157      1042
         4       947       973       976      1068
         4      1162      1289      1332      1077
         4      1199       971       247       510
         4      1151       511       891       883
         4       952      1162      1157      1163
         4       917       932       933       930
         4      1033      1029      1371      1032
         4      1033      1361      1371      1029
         4      1033      1034      1371      1347
         4      1094       311       730       328
         4      1190      1211      1033      1347
         4      1106       977      1128       975
         4       611      1191       602      1288
         4      1128      1309      1346      1317
         4      1186      1260      1263      1224
         4      1141       739       696       735
         4       929      1311      1345      1239
         4      1261       611       583      1288
         4      1177      1241      1176      1239
         4       877       992       879       995
         4       786       967       825       782
         4      1072       780      1053       992
         4      1242      1243      1056      1355
         4      1007       836       833      1337
         4      1004       800      1111      1001
         4      1220      1209       798      1143
         4      1136      1137      1306      1129
         4      1111      1001      1102      1004
         4      1007      1091      1365       833
         4       901      1110      1001      1111
         4       989       999      1202       872
         4       797      1111       800      1110
         4      1111      1102      1105      1204
         4      1148      1111      1105      1204
         4      1195       196       195      1237
         4      1162      1289      1077      1078
         4      1086      1237       557       196
         4      1018      1017      1019      1107
         4       853       807       852      1130
         4      1020      1136      1299      1018
         4       818       817      1134       822
         4       818      1134       817       907
         4      1195       194       196       789
         4       929      1311      1310      1345
         4      1177      1176      1311      1239
         4      1030       928       922      1029
         4      1050      1046       869       915
         4       989       770       771      1238
         4      1042      1048       205      1049
         4       930       917      1175      1153
         4       934       777       935       965
         4      1142       468       466       467
         4      1084      1117      1256      1255
         4      1179       466       634       756
         4      1056       860      1242      1055
         4      1150       705       958       467
         4      1026       841       842      1362
         4      1251      1252      1253      1256
         4      1084      1255      1119      1117
         4      1179      1181      1180       756
         4      1099      1284      1305      1165
         4      1345       931       929      1239
         4      1179       466      1180      1150
         4      1275      1174      1367      1273
         4       965       968      1300       966
         4      1099      1100      1101      1271
         4      1240      1273      1274      1296
         4      1148      1204       799      1111
         4      1173      1164       986      1240
         4      1179      1153      1149      1183
         4      1080       448       453       449
         4       839       841       842      1026
         4      1153       861       464       635
         4      1010      1132       822      1328
         4      1124      1025       809      1298
         4       971       247       510       350
         4      1096       751       310       161
         4      1132      1328       817       822
         4       161       731       195       883
         4       731       883      1195       195
         4       816       817      1132       906
         4       806       809      1346      1298
         4       907       817      1325      1134
         4       817      1328      1325      1134
         4       817      1349      1328      1132
         4       906      1132      1349       817
         4      1048       270       492       205
         4       813      1210      1059       809
         4       757      1231       696      1141
         4       954      1160      1333       914
         4      1035      1216      1207      1208
         4       954       948      1077      1333
         4      1162       954       948      1077
         4       930       932      1149      1175
         4      1202       869       915      1050
         4      1163       913       914       915
         4      1238       522       491      1074
         4      1041      1042      1157      1163
         4       961      1040      1172       998
         4       946       959      1157      1125
         4      1011      1359       836       950
         4      1114      1284      1166      1329
         4       911      1011      1160      1051
         4      1011      1051      1168      1203
         4       832       831      1338      1197
         4       970       971       510      1152
         4      1033      1371      1034      1032
         4      1195       195       194       731
         4      1063      1325      1134       907
         4      1253      1254      1255      1326
         4       901       902      1030      1104
         4       928      1110      1351      1029
         4       928      1029      1314       922
         4       856       857       858      1313
         4       934       778       777       965
         4       757       714       696       695
         4      1351      1032      1029      1110
         4      1108      1372      1107      1109
         4      1029      1351      1371      1032
         4       852      1089      1090      1130
         4       839      1061      1055      1054
         4       784       866       944       942
         4      1244       693      1285       939
         4      1124      1025      1065      1210
         4       940       939      1285      1227
         4       849       855      1067      1068
         4       777       936       935      1303
         4       866       937       687       561
         4       833      1338      1337       832
         4      1071      1253      1093      1066
         4       938       822      1134      1056
         4      1254      1084      1255      1022
         4      1082       818       889       890
         4      1086      1250      1233      1335
         4       889       888       813      1133
         4      1212      1242      1354      1363
         4       810       889       813      1133
         4      1057       808      1059      1060
         4       991       844       831      1196
         4      1093      1133      1252      1087
         4      1071      1254      1093      1253
         4      1012       774       826       773
         4       812       810      1124      1000
         4      1040       824      1172      1235
         4       877      1075       878       992
         4       940      1099      1076      1080
         4      1028      1032      1029      1033
         4       858      1312      1373      1310
         4       994      1324      1147       996
         4       781      1324      1329      1322
         4       995       963       993       962
         4       992      1336       993       963
         4       909       771       785      1053
         4      1075      1076       880      1282
         4       827      1194      1154      1235
         4      1053       771      1081      1074
         4      1072       877      1076       779
         4      1114      1330      1284      1329
         4       992       995       993       879
         4      1038      1217      1302      1218
         4       939       687      1244       693
         4      1280      1073       872      1282
         4       884      1336       885       886
         4       912       963      1336       992
         4       872       999       873      1075
         4      1038      1218      1302      1303
         4       910       912       884       999
         4       929      1310      1300      1345
         4      1216      1248      1301      1217
         4       971       949       969      1152
         4      1011       950      1161      1359
         4       999      1075       878       873
         4       825       824      1235      1105
         4      1131      1374      1171      1203
         4       757      1201       695      1142
         4       603       723       607      1274
         4       912       897      1051      1131
         4      1011      1160      1161       950
         4      1160       950      1333      1161
         4      1182       403       634       637
         4       933      1013      1116       861
         4       916      1190       919      1191
         4      1160      1051      1161       885
         4      1275      1273      1367       723
         4       897      1051      1168      1011
         4       406       723      1275      1367
         4      1173      1182      1275      1276
         4       765       902       768       901
         4      1173      1241      1276      1174
         4      1149      1181      1192      1180
         4       884      1202       999       887
         4      1183      1241      1192      1181
         4       792       907       817      1352
         4       796       790       568       731
         4      1097       796       626      1094
         4       906      1349      1352       817
         4      1234       951      1366       975
         4       975       948      1360      1079
         4      1268       570        91        93
         4      1234      1365      1366      1007
         4      1106      1307      1108      1308
         4       840       839      1054      1061
         4      1254      1325      1304      1326
         4      1254      1325      1326      1071
         4       821       846       862       843
         4      1093      1253      1252      1066
         4      1326      1253      1071      1370
         4      1191      1205      1287      1206
         4       923       921       637      1153
         4       963      1131      1374      1171
         4      1275      1182       603       403
         4      1013      1141       739       861
         4      1231       861       463      1141
         4      1114      1329      1166      1321
         4       781      1329      1321      1322
         4       909       898       944       771
         4      1074       491       523       522
         4       992      1075       878       999
         4       884      1051       885      1336
         4      1280      1074       448       522
         4       992      1336       886       993
         4      1270      1291       548      1271
         4       912      1336       963      1131
         4      1152       349       350       510
         4      1032      1031      1348      1034
         4       848      1200      1199      1232
         4      1003      1351      1110      1032
         4       813      1058      1059      1344
         4       813      1344      1059      1210
         4       844      1198      1213      1196
         4       764      1230       875       871
         4       901      1032      1001      1110
         4      1130      1091      1138      1137
         4       899      1159       349      1152
         4      1032      1001      1003      1031
         4      1032      1348      1371      1034
         4       764       904       903      1028
         4       946      1185      1157      1162
         4      1285      1357      1166      1286
         4      1122       327       673      1060
         4      1234      1366      1307       975
         4       937       936      1343       956
         4      1094       626       586       730
         4       957       958      1315       956
         4      1043       317      1045      1122
         4      1069       318       317      1232
         4      1126      1199       318      1232
         4       757      1141       696      1140
         4       934       956       935       936
         4      1072       785      1053       780
         4       965      1218       935       966
         4       516       195       892       883
         4       843       846      1364       844
         4       888      1133      1087      1344
         4      1018      1107      1019      1298
         4      1086       557       564       196
         4       888       622       557       620
         4      1084      1117       908      1256
         4       814       874       979      1132
         4      1152       511       349       510
         4      1336      1131      1374       963
         4       780       877       995       992
         4       961       994       995       776
         4       963       828      1131      1171
         4      1366      1337      1359       951
         4       941      1321       936       777
         4      1136      1107      1372      1017
         4       948       945       950       952
         4       954      1160       950      1333
         4       945       951       948       950
         4       954       950       948      1333
         4      1158       971       969       271
         4      1259      1339      1309      1260
         4      1106      1109      1107      1309
         4      1042      1158       205       959
         4       850       945       849       960
         4       906       792      1352      1353
         4      1144      1249      1300      1310
         4      1144      1310      1215      1249
         4      1082      1092      1084      1085
         4       866       944       748       732
         4       796       731      1096       883
         4      1195       196      1237       789
         4       882       859       883       905
         4      1336      1051      1374      1131
         4      1011      1168      1331      1203
         4      1039      1035       825      1236
         4       911      1011       836       950
         4      1011       836      1359      1331
         4       719       875       347       312
         4      1051      1131      1203      1374
         4      1220      1373      1215      1310
         4      1163       954      1332       914
         4       897      1051      1131      1168
         4       900       905       763       838
         4      1005      1135      1350      1211
         4      1132       979      1010       874
         4       900      1094      1230      1096
         4       979       874      1008      1010
         4      1110       800      1003      1001
         4      1177      1340      1311      1176
         4      1083       570        93       569
         4      1150      1315      1180      1149
         4      1014       861      1141      1013
         4      1189       932       931       929
         4      1116       904      1219       902
         4      1063      1254      1325       907
         4       901      1030      1110      1104
         4       861       739       463      1141
         4      1092      1250      1256      1233
         4       979       762      1031       863
         4       785      1081       771       944
         4      1334      1330      1329      1375
         4       522        15       521      1283
         4       901      1031      1001      1032
         4      1031      1001      1003      1002
         4      1031       863      1002      1008
         4      1032      1371      1348      1003
         4      1031      1001      1002       864
         4      1153       637       635       464
         4       696      1140      1141       735
         4      1219       329       420       739
         4      1137      1129      1089      1306
         4      1194      1102      1193      1204
         4      1357      1244      1285       941
         4      1111      1204       799      1102
         4       975       951      1360       948
         4      1234      1007      1366       951
         4       920       916      1116       904
         4       888      1335       622      1058
         4       950      1360      1359       951
         4       931      1149      1192      1315
         4       951      1359      1366      1360
         4       975       951      1366      1360
         4       835       950       836       951
         4      1221      1041      1245      1047
         4       950      1359       836       951
         4       951      1337       836      1007
         4       951      1007      1366      1337
         4       836      1331      1337      1359
         4      1126       249      1199      1125
         4      1128       807       855       806
         4      1041      1185      1289      1163
         4      1221       598      1047       599
         4       974       975      1079       948
         4      1290      1302      1301      1145
         4      1038      1301      1302      1217
         4       952       954      1162      1163
         4       947       977      1127       976
         4      1163      1332       954      1162
         4       916      1190      1033       918
         4       921       420       697       464
         4      1184      1225      1294      1078
         4      1179      1150      1149      1153
         4       992       878       993       886
         4       864       844      1198       865
         4      1009       874       820      1243
         4       822      1010      1243       874
         4      1132       822       874      1010
         4       794      1005       814      1006
         4       995       993       879       996
         4      1132      1320      1010       979
         4      1231       468       463       635
         4       569      1277      1083       568
         4       802       850       882       811
         4       990       905       900       838
         4      1040      1172       998      1236
         4      1140       735      1015      1141
         4       907      1352      1304      1325
         4       944       898       749       652
         4       846      1257      1364      1009
         4       883       516       161       511
         4       866       687       727       561
         4       944       898       714       749
         4       942      1140       714       944
         4      1072      1053      1075       992
         4       783       963       828      1131
         4       775       784       777       941
         4      1072      1080      1081       943
         4      1043      1052      1112      1297
         4      1016       842      1026       839
         4      1128      1127      1317      1346
         4       864      1002      1198      1004
         4       829       767       834       837
         4       808       809      1059      1112
         4      1221       598       599       595
         4      1090      1376      1363      1091
         4      1199       510       247       729
         4       975      1307      1079      1360
         4      1232       324       729       318
         4       961       783       780       963
         4      1223      1226      1264      1225
         4      1186      1263      1266      1224
         4      1052       808      1112      1346
         4      1265      1188      1247       633
         4       771       898       652       772
         4      1229       595      1221       738
         4      1053       872      1075       999
         4       994       998       996      1147
         4      1089      1365      1137      1306
         4       784       866       943       944
         4      1036      1038      1217      1216
         4       912       992      1336       999
         4      1139       757      1140      1141
         4      1276       406       405       403
         4       783       828       827      1131
         4       714       735       898      1140
         4      1336      1051       885      1374
         4       793      1353      1341      1358
         4       961       782       828      1040
         4       961      1040       828      1172
         4       961       995       962       963
         4      1029      1351      1314      1361
         4       924       602       697       611
         4       828       827      1171      1172
         4       898       772       347       348
         4      1005      1348      1347      1320
         4       882       859       850       891
         4       896       899      1152      1159
         4       786       824       827       828
         4       871       511      1096       310
         4      1102      1004      1193       799
         4      1230       311       310      1096
         4      1336       963      1374       993
         4       843       862      1363       846
         4      1096       751       311       310
         4       839       840      1025       842
         4      1056      1355      1243      1318
         4       967      1146      1038       997
         4      1005      1132       979      1320
         4       982      1292      1211      1190
         4      1022      1119      1255      1327
         4       790       194       570       568
         4      1131      1168      1203      1171
         4      1159       511       310       349
         4      1042       492       598       205
         4      1050      1049       953      1202
         4       900      1095      1094      1006
         4       793      1342      1341      1353
         4       796       730       731       626
         4      1082      1251      1092      1087
         4       890      1195      1237       789
         4      1251      1253      1255      1256
         4      1185      1163      1041      1157
         4       808      1346       809      1112
         4      1048      1046      1050      1041
         4      1221       595       248       598
         4      1148       799      1209       798
         4       973      1157      1125       946
         4      1048      1042       205       492
         4       898       347       876       735
         4       920       918      1029       922
         4      1098       983      1342      1292
         4       982      1191      1261      1288
         4      1013      1116       861       420
         4      1094      1095      1230       328
         4      1261       419       586       583
         4       991      1102      1103       765
         4      1116       328       420      1219
         4       448      1291       454       449
         4      1280       870      1283      1281
         4       882       891       883       859
         4       488       868        15      1283
         4       792      1304      1352      1358
         4      1063      1056      1134      1318
         4      1170       791       793      1358
         4       195       883      1195       892
         4      1086       888       557      1237
         4       872      1202       873       999
         4      1073      1074      1072      1080
         4       816       846       874       820
         4       943       453       732       727
         4      1028       901      1030      1032
         4      1280      1282       870      1281
         4       194       790      1195       731
         4      1211      1292      1342      1347
         4       843      1363      1364       846
         4       789       196       570       194
         4      1213       843       844       831
         4      1085      1086       564       196
         4      1005      1211      1350      1347
         4       843      1364      1213       844
         4       833      1338      1090      1091
         4      1088      1304      1358      1024
         4      1376       843      1338      1090
         4      1092      1256       908      1233
         4       829       843       833       831
         4       830       843       844       846
         4      1338       843       833      1090
         4       833      1338      1091      1365
         4       843      1197      1338       831
         4       843      1197       831      1213
         4      1237       557       196       558
         4       876       898       735      1015
         4       888       813      1344      1058
         4       513       693      1286       649
         4       942       714       695       561
         4       890       796      1195       790
         4       802       882       850       891
         4      1072       785       943      1081
         4      1099      1080      1101      1076
         4      1227       513       453       727
         4      1271      1165      1305      1272
         4       941       937       936      1244
         4      1285      1166      1167      1286
         4      1054      1062      1061      1064
         4       892       888       803       881
         4      1113       879      1334      1324
         4       816       821       846       820
         4      1056      1134      1318      1243
         4       963       962      1171      1374
         4      1067      1232      1069      1121
         4      1246      1185      1294      1222
         4       940      1227      1167      1270
         4       937      1343      1244       711
         4      1184      1289      1078      1294
         4      1219       329       328       420
         4       863       865      1009      1364
         4       976       977      1258       974
         4      1202       915       869       887
         4      1102       864       991      1198
         4      1011      1203      1161      1051
         4      1230       311       329       312
         4       979      1031      1348      1008
         4      1105      1235      1204      1194
         4       816       818       822       817
         4       794       792       817       906
         4      1132      1010      1320      1349
         4       161       883       511      1096
         4       945       854       948       951
         4      1116       419       697       420
         4      1259      1317      1309      1128
         4      1261      1095       419      1116
         4      1316       977      1079       974
         4       855      1127      1052      1068
         4      1019      1025       842      1016
         4      1018       806      1107      1298
         4      1106      1307      1306      1108
         4      1185      1222      1245      1294
         4      1089      1007      1365      1234
         4       849      1199      1125      1126
         4       970      1199       510       971
         4      1066      1054      1071      1070
         4      1031      1348      1008      1002
         4       844      1364      1213       865
         4      1056       822      1243       820
         4       510      1199       970      1200
         4      1376       843      1213      1197
         4      1054      1066       840      1062
         4       511       510      1152      1151
         4      1066      1070      1071      1370
         4       821       820       862       846
         4       972      1151      1152       970
         4       945       854       849       947
         4      1214      1235      1204      1105
         4       764       762       903       900
         4       978       979      1034      1005
         4       979      1008       863      1031
         4      1103      1193      1196      1194
         4      1036      1218      1249      1217
         4       978      1031      1034       979
         4      1005      1348      1320       979
         4      1113       879       880      1334
         4      1324      1375      1329      1322
         4      1147      1322      1145      1369
         4       933       861      1153       930
         4      1001       864      1031       901
         4       917      1164       918       922
         4      1324      1329      1375      1334
         4      1032      1031      1003      1348
         4       965      1303       935      1218
         4      1146      1322      1302      1145
         4      1146      1303      1302      1322
         4      1030      1032      1110      1029
         4       833      1338      1365      1337
         4      1031       863       864      1002
         4      1111       799      1004      1102
         4       929       931      1345       968
         4       764       875      1219      1013
         4      1028       762      1031       903
         4      1001      1004      1002       864
         4       820       846      1009      1257
         4       997      1147       994      1146
         4      1214      1208      1209      1204
         4      1334      1324      1329      1113
         4      1191      1287      1288      1206
         4       987      1176      1295      1340
         4      1056      1064      1355      1318
         4      1261       981      1288       583
         4      1094      1230       311       328
         4      1173       986      1174      1273
         4       883       891       516       511
         4      1170      1097       793       795
         4       979      1031      1034      1348
         4       511       883       871      1096
         4       874       863      1008      1009
         4       921       464       697       637
         4       979       874       863      1008
         4       980       587       584       583
         4       838       814       978       990
         4       821       905       988       859
         4       746       406      1367       723
         4       811       819       821       882
         4      1198      1102      1004      1193
         4       980      1262       583      1261
         4      1006      1098      1135      1211
         4      1103       758      1115       761
         4       898       899       347       772
         4      1190      1356      1292      1347
         4       764       903       762      1028
         4       876       875       735       347
         4       735      1140      1015       898
         4      1287       602      1288       606
         4      1190      1205      1356       918
         4       986      1174      1368      1295
         4       749       898       714       735
         4      1170       983      1278      1341
         4       792      1358      1352      1353
         4      1277       845      1279       572
         4       916       982      1262      1211
         4       826      1105      1103       824
         4       616       734       572      1278
         4       844      1198       865      1213
         4      1051      1131      1168      1203
         4      1041      1046      1228      1047
         4      1270       453       514       449
         4      1227       514      1167      1270
         4       768      1015       875      1013
         4       909       912       785       783
         4      1100      1305      1284      1330
         4      1115       758      1103       766
         4      1280      1283       521      1281
         4       893       899       898       772
         4      1125       633       249       248
         4      1247      1125      1157       248
         4      1041      1245      1047      1228
         4      1229       638       738      1222
         4       862       846      1257      1363
         4      1151       511       871      1152
         4       893       760       876       896
         4       839      1025       840      1065
         4      1152       971       510       350
         4       896      1152       972       988
         4      1146      1322      1321      1303
         4       824       827      1172      1235
         4      1227      1285      1167      1286
         4      1214      1204      1235      1208
         4       834      1011      1168       832
         4       871       896      1159       759
         4      1040       828      1172       824
         4       823       825      1214      1105
         4      1039      1290      1236       998
         4      1146       994      1322      1147
         4      1214      1035       825       823
         4       963      1171       962       828
         4       693      1286      1244      1285
         4       826       824      1103       827
         4       778       965       927       823
         4       971      1199       247       959
         4       953       913      1160       954
         4       960      1125      1199       959
         4       350       969       899      1152
         4      1085       564       570       196
         4       729       510      1200      1199
         4       911      1011       950      1160
         4       819       882       905       821
         4       960      1199      1200       970
         4      1135      1353      1350      1342
         4      1083       568       795       790
         4       889      1237       888      1086
         4       791      1358      1279      1024
         4      1277      1279       845       791
         4       571       569       572       845
         4       849      1067      1199      1126
         4       971       271       350       969
         4       881      1195       892      1237
         4       973      1185      1184      1247
         4       843      1364      1363      1376
         4      1170      1279      1341      1278
         4       796       626       731       568
         4      1160      1333       914      1161
         4       833       834       832       836
         4      1163      1332       915       914
         4       801       807       812      1124
         4      1221      1222       599      1245
         4      1042       959       205       248
         4       832      1115      1168       834
         4       997      1145      1302      1290
         4      1246      1294      1264      1222
         4       759       764       875       871
         4      1011      1051      1161      1160
         4      1048       270       488       492
         4      1230      1219       312       329
         4      1199       247       249       729
         4      1125       249       247       248
         4      1006      1262      1211      1095
         4      1219       900      1095      1230
         4       890      1195       815       881
         4       989      1238      1049       770
         4       311      1094       730      1096
         4       950       951       948      1360
         4       904      1116      1219      1095
         4       602      1191      1287      1288
         4      1182       403       637       603
         4       900      1094      1095      1230
         4       958       467       955      1150
         4      1012      1139      1014       774
         4      1247      1126      1125       633
         4      1005       906      1350      1135
         4      1096       511       161       310
         4      1230       871       310       312
         4       900       905       990      1096
         4       864      1102       991       765
         4       930       931      1149       932
         4      1164       986      1296       985
         4       765      1103       761       766
         4       982      1292       981       983
         4      1313      1312      1311      1340
         4       598      1047       599       579
         4       795      1097       616      1170
         4       900      1230       871      1096
         4       488       868       578        15
         4       764      1219       875      1230
         4       763       871       900       764
         4       899       969       497       772
         4      1280      1074       872      1073
         4      1146      1147      1322      1145
         4      1047      1041       492       598
         4       895      1158       969       770
         4      1098      1341      1342       983
         4       877      1075      1076       880
         4       992       963       993       995
         4       912      1336      1131      1051
         4      1053       992       999      1075
         4       912       884       999      1336
         4       749       898       735       347
         4       944      1140       714       898
         4       768       876       875      1015
         4      1075       878      1282       880
         4      1277       616       569       572
         4      1188       282       258       257
         4       876       735       875      1015
         4      1058       620       888      1057
         4       952       946       959      1157
         4       863       846      1364      1009
         4       871       896      1152      1159
         4       910       989      1202       953
         4      1115       827      1154      1168
         4       922      1361      1314       985
         4       931      1192      1345      1315
         4       832      1115       831      1156
         4      1131      1168      1171       827
         4      1168      1154      1171       827
         4      1187      1263      1044      1266
         4       284       257       282      1044
         4       971       350      1152       969
         4       947      1127       977       855
         4      1188       282       633       258
         4      1113       879       995       877
         4      1223       593       594      1293
         4       838       979       874       863
         4      1068      1043      1127      1052
         4      1187       257       258      1266
         4      1265       591       594       638
         4       756      1181       405       634
         4      1182       405       634       403
         4      1183      1241      1181      1276
         4       874      1243       822       820
         4       881       890      1195      1237
         4       889       888      1133      1087
         4      1130       862       853       812
         4      1189      1175      1183      1149
         4      1178      1314      1313       987
         4      1275      1367      1174      1276
         4      1055      1061      1354      1355
         4       938      1093      1133      1000
         4       405      1183      1276      1182
         4      1055      1212      1242      1354
         4      1055      1354      1061      1026
         4       835       834       911       972
         4      1043      1045      1044      1297
         4       824      1235      1194       827
         4       827      1154      1194      1103
         4      1014       823      1104       826
         4       824      1194      1105      1103
         4       819       820       822       860
         4      1262      1006      1098      1097
         4       820       862       846      1257
         4       893       969       772       769
         4       850       970      1200      1151
         4       843      1090      1376      1363
         4       874       863      1009       846
         4      1134      1318      1328      1325
         4       816       814       874       838
         4      1187      1263      1297      1044
         4      1265       258      1266      1187
         4      1187       258       257      1188
         4       863       844       865      1364
         4       918      1356      1361      1205
         4      1275      1173      1240       923
         4      1069       317       318       282
         4      1219      1013       420      1116
         4      1190      1356      1205      1206
         4       800      1001      1110      1111
         4      1230      1219       875       312
         4      1150      1180      1315       958
         4      1262      1094       586      1095
         4       910       911      1160      1051
         4      1150       958       705      1180
         4       974      1258       976      1184
         4       825       823       824      1105
         4      1221      1245       599      1047
         4       922      1314      1361      1029
         4       900       990      1094      1096
         4      1054       840      1000       839
         4       790       731       796      1195
         4       980       583       586       587
         4      1247       633       248       595
         4       822      1243      1010      1328
         4      1212      1363      1354      1138
         4      1054      1070      1066      1062
         4      1175      1183      1153      1182
         4      1195       195       196       194
         4      1232      1199       729      1200
         4      1081       652       732       523
         4      1230       311      1096      1094
         4      1099      1271      1165      1305
         4       757      1231       468       696
         4      1073      1075      1282      1076
         4      1201       695       710       561
         4      1080       448       523       453
         4      1075       878       873      1282
         4       933      1153       861       921
         4      1234      1366      1365      1306
         4       926      1037      1143      1148
         4       908      1085      1233       650
         4      1086      1335      1233       562
         4      1001      1102      1004       864
         4       900      1006       903      1095
         4      1167      1227      1286       649
         4      1103      1196      1193       991
         4       924      1116       419       697
         4       583       582       981      1288
         4       586      1169      1262       980
         4      1115      1196      1156      1103
         4      1169       983       734      1278
         4      1097       568       616       626
         4       893       894       769       909
         4       867      1202      1050       869
         4       824      1105      1194      1235
         4      1238       488       270       491
         4       773       898      1140       944
         4      1074       523       771      1081
         4       770       271       272       270
         4      1048      1042      1050      1049
         4      1007       833      1090      1091
         4       903      1031      1034       978
         4      1103       991       765       761
         4      1023       442      1268      1267
         4      1170      1358      1341      1279
         4      1129      1108      1136      1107
         4      1254      1022      1326      1304
         4      1230       875       871       312
         4      1043      1045      1297      1112
         4      1057       327      1060       643
         4      1230       329       328      1219
         4      1121       651       324       327
         4       557       622      1335       562
         4      1012      1015      1141      1140
         4       834      1168      1011       897
         4      1080      1073      1291      1101
         4       804       808      1122      1052
         4      1074       523       448       522
         4      1057      1059       808       813
         4      1152       511      1159       349
         4      1277      1279      1278       572
         4      1083       569       568       570
         4      1170       793      1097      1098
         4       511       871      1152      1159
         4      1169       616      1278       734
         4       899       349       350      1152
         4       851       833      1090      1007
         4      1120      1200       625       891
         4      1267      1023       442      1118
         4      1151       891       511       625
         4      1179      1181       634      1183
         4      1053       785      1081       771
         4      1149      1180      1192      1315
         4       635      1231       468      1142
         4       957       966       956      1315
         4      1221      1185      1245      1041
         4      1069       282      1044       284
         4      1057      1060      1058       643
         4      1122       317      1045       673
         4      1123       620       558       651
         4      1122      1045      1112      1060
         4       327      1060       643       673
         4      1122      1045      1060       673
         4       893       896       899       969
         4       830       843       831       844
         4       888      1344      1335      1058
         4      1199       249       318       729
         4      1151       970      1200       510
         4      1338       832      1319      1337
         4       832      1011      1168      1331
         4      1148       799      1204      1209
         4       757       695       468      1142
         4      1150       467      1142       466
         4       955      1343       709       958
         4       955      1343       958       956
         4       687       711      1244       693
         4       782      1040       824       828
         4       849       848       960      1199
         4       347      1159       875       719
         4      1013       735       739      1141
         4      1150       466      1180       705
         4      1159       896       876       759
         4       874       846       816       838
         4       773      1015      1140       898
         4      1032      1371      1003      1351
         4      1268       442        93        92
         4      1253      1255      1254      1251
         4      1030      1029      1110       928
         4      1326      1370      1327      1253
         4      1336       886      1374       885
         4       817      1325      1328      1352
         4      1326      1071      1253      1254
         4       760       876      1015       898
         4      1150       964       930      1142
         4      1120      1232       324       625
         4       839      1124      1065      1000
         4      1063      1071      1064      1318
         4       843      1338      1197      1376
         4       762       844       864       863
         4       910       913      1202       884
         4      1020      1137      1299      1136
         4      1089      1091      1090      1130
         4      1018      1136      1017      1107
         4       806      1107      1298      1346
         4      1128      1107      1346      1309
         4       974      1162      1077      1078
         4      1308      1339      1109      1309
         4      1223      1226      1293      1264
         4       759       767       758       761
         4       831       767       844       761
         4       900       904       764      1219
         4      1120       891       625       516
         4       859       891       883      1151
         4      1267      1268      1023      1117
         4      1223      1266      1224      1186
         4      1259      1339      1260      1316
         4      1106       854       975      1128
         4      1237       196       195       558
         4      1020      1137      1138      1299
         4       918      1033      1029      1361
         4      1126       633       318       249
         4      1005      1350      1320      1347
         4      1102      1103      1193       991
         4      1005      1350      1349      1320
         4       863       864      1002       865
         4      1232       317       324       318
         4       815       814       990       794
         4       778       774       927       964
         4      1012       766       826       765
         4      1102       799      1193      1204
         4       761       864       844       991
         4       864       991      1198       844
         4      1115       831      1156      1196
         4       991      1196      1198       844
         4      1270       449       547       548
         4       961       962       998      1172
         4       820      1009       846       874
         4       762       761       844       767
         4      1324      1322      1369      1375
         4       995      1324       996       879
         4      1031      1348      1002      1003
         4       785       944       943      1081
         4      1168      1171      1155      1203
         4       992       999       878       886
         4      1034      1347      1348      1371
         4      1110      1003       800      1351
         4       769       969       772       770
         4      1102      1103      1105      1194
         4       926       823       968      1037
         4       821       905       859       882
         4      1168      1171      1154      1155
         4      1232       729       324       625
         4       823      1148      1105      1214
         4      1201       695       467       710
         4      1111      1004       799       800
         4       466       705       756      1180
         4      1063      1325      1071      1318
         4       883       195       161       516
         4       770       491       270       272
         4       783       766      1131       827
         4       854      1234      1129      1106
         4      1036      1249      1218      1300
         4      1148      1111       799       797
         4       858      1220      1310      1373
         4       910       884      1051      1160
         4       856      1313      1312      1311
         4      1144      1143      1310       929
         4       511       625       510      1151
         4      1223      1265      1264       594
         4       917       919       918      1164
         4      1164       918       985      1205
         4      1164       985      1296      1205
         4       762      1031       863       864
         4      1177      1340      1176       987
         4       773       942       944      1140
         4       969       271       350       497
         4       924       419       611       697
         4       984       987      1176      1295
         4       780       992       995       963
         4       877       880       878      1075
         4      1275       603       723       406
         4       986      1174      1273      1368
         4      1240      1273      1296       986
         4      1275      1173      1276      1174
         4      1275       406      1367      1276
         4       971       350       271       247
         4       918       985      1205      1361
         4       950      1161      1359      1333
         4      1255      1254      1022      1326
         4      1021      1023      1117      1119
         4      1012       773      1015      1140
         4       871       875       719       312
         4       770       772       272       969
         4      1041      1163      1228      1050
         4      1048       488      1049       867
         4      1134      1318      1243      1328
         4      1132      1328      1010      1349
         4      1089      1007      1091      1365
         4      1069       282       318       633
         4      1163      1228      1332      1289
         4       769       909       912      1053
         4       828      1171       827      1131
         4      1082      1086       789       889
         4      1027      1138      1026      1299
         4       839      1061      1026      1055
         4      1133      1124      1065      1210
         4      1056      1055      1355      1061
         4      1257      1242      1355      1243
         4      1337       951       836      1359
         4      1090      1338      1376      1091
         4       928      1351       857      1314
         4      1190      1206      1292      1356
         4       903       916      1095      1211
         4      1016      1299      1017      1018
         4      1016      1299      1026      1362
         4      1016       842      1362      1026
         4      1242      1354      1363      1257
         4      1190      1211      1347      1292
         4      1229      1157       595      1247
         4      1108      1107      1372      1136
         4      1106      1308      1109      1309
         4       948      1360      1079      1077
         4       959       247       971      1158
         4       855       977      1128      1127
         4       810      1133      1124      1000
         4      1018      1128      1107       806
         4      1185      1289      1294      1245
         4      1011      1161      1331      1359
         4      1265      1188       633       258
         4      1258      1078      1316      1225
         4      1246      1186      1184      1247
         4      1223      1186      1224      1225
         4      1258      1260      1323      1316
         4       992       886      1336       999
         4      1336      1374       886       993
         4      1113      1330      1100      1114
         4       827      1171      1172      1154
         4       864      1002       865      1198
         4      1080       448       449      1291
         4      1032      1110      1003      1001
         4      1033      1371      1361      1356
         4       891       625       516       511
         4       866       748       727       732
         4      1029      1371      1351      1361
         4      1140       735       696       714
         4      1099      1100      1284      1114
         4      1042      1048      1041       492
         4       825      1235      1236      1208
         4       909       771       772       898
         4      1036      1035      1207      1037
         4      1037      1209      1207      1220
         4      1038      1301      1217      1216
         4       965      1218       966      1300
         4       771       652       523       491
         4       945       835       851       951
         4       898       772       348       652
         4      1050      1228      1046       915
         4      1158       205       271       270
         4      1036      1215      1249      1144
         4      1036      1035      1216      1207
         4      1036      1216      1217      1248
         4       861       463       739       420
         4      1051       885      1374      1203
         4       797       800       798       857
         4      1105       765      1103      1102
         4      1280       867       870       872
         4       963       993       962      1374
         4      1143       858      1220      1310
         4       972      1151       850       859
         4      1115       767       831       761
         4      1033      1371      1356      1347
         4       923       637       697       602
         4       923       924       602       697
         4       635       634       637      1153
         4       917       920       932       922
         4      1178       985      1314       987
         4       757       942       695      1201
         4       856       857      1313      1314
         4      1280      1238       868       867
         4      1133      1065      1344      1210
         4       848      1120       891      1200
         4       949       971       959       960
         4      1080      1073      1101      1076
         4       997       998      1147      1290
         4       839      1026      1061       841
         4       964      1150       955      1142
         4      1089      1091      1137      1365
         4       807       852      1130      1089
         4       948      1077      1333      1360
         4       976      1259      1127      1263
         4       959       205       248       247
         4       784       773       944       785
         4       832      1319      1197      1338
         4      1096       161       883       731
         4       843       862      1090      1363
         4       812       839      1000      1124
         4      1242       820      1257       862
         4       860      1000      1056       938
         4       884       914       887       885
         4      1169      1098      1097      1262
         4      1028      1034      1032      1033
         4      1095       328       586       419
         4       811       853       812       807
         4       863       846       844      1364
         4      1021      1304      1024      1022
         4       874      1009      1010      1243
         4       899       347      1159       876
         4      1202       873       887       869
         4      1277       616       568       569
         4       817      1134       822      1328
         4      1158       247       271       205
         4      1183      1173      1276      1182
         4       602      1274       606      1287
         4       611      1288       582       583
         4       990      1096       883       796
         4       602       606      1274       607
         4      1261       419       583       611
         4      1091      1130      1138      1212
         4      1288       982      1206       981
         4       611       582      1288       606
         4       913       914      1160       954
         4      1222      1221      1229      1185
         4      1246      1225      1264      1294
         4      1097      1094       626       586
         4       317       673       284      1045
         4      1179       756      1180       466
         4       626      1097       586      1169
         4       980       584       983       981
         4       980       584       981       582
         4      1169      1278       616      1170
         4      1158       959       247       205
         4       598       492      1047       579
         4      1042       598       248       205
         4      1238       491       522       488
         4      1200      1151       891       850
         4      1125       959       248       247
         4       863      1002      1008       865
         4       867      1046       868       869
         4      1007      1337      1365      1366
         4       492       578      1046       579
         4       772       969       497       272
         4      1280       448      1281       521
         4      1120       651       625       324
         4      1238      1283       868       488
         4       488       522      1283        15
         4      1133      1065      1252      1344
         4       979      1320      1008      1348
         4       843      1213      1364      1376
         4       980       734       983       584
         4      1123       892       651       558
CELL_TYPES       6584
 10
 10
 10
 10
 10
 10
 10
 10
 10
 10
 10
 10
 10
 10
 10
 10
 10
 10
 10
 10
 10
 10
 10
 10
 10
 10
 10
 10
 10
 10
 10
 10
 10
 10
 10
 10
 10
 10
 10
 10
 10
 10
 10
 10
 10
 10
 10
 10
 10
 10
 10
 10
 10
 10
 10
 10
 10
 10
 10
 10
 10
 10
 10
 10
 10
 10
 10
 10
 10
 10
 10
 10
 10
 10
 10
 10
 10
 10
 10
 10
 10
 10
 10
 10
 10
 10
 10
 10
 10
 10
 10
 10
 10
 10
 10
 10
 10
 10
 10
 10
 10
 10
 10
 10
 10
 10
 10
 10
 10
 10
 10
 10
 10
 10
 10
 10
 10
 10
 10
 10
 10
 10
 10
 10
 10
 10
 10
 10
 10
 10
 10
 10
 10
 10
 10
 10
 10
 10
 10
 10
 10
 10
 10
 10
 10
 10
 10
 10
 10
 10
 10
 10
 10
 10
 10
 10
 10
 10
 10
 10
 10
 10
 10
 10
 10
 10
 10
 10
 10
 10
 10
 10
 10
 10
 10
 10
 10
 10
 10
 10
 10
 10
 10
 10
 10
 10
 10
 10
 10
 10
 10
 10
 10
 10
 10
 10
 10
 10
 10
 10
 10
 10
 10
 10
 10
 10
 10
 10
 10
 10
 10
 10
 10
 10
 10
 10
 10
 10
 10
 10
 10
 10
 10
 10
 10
 10
 10
 10
 10
 10
 10
 10
 10
 10
 10
 10
 10
 10
 10
 10
 10
 10
 10
 10
 10
 10
 10
 10
 10
 10
 10
 10
 10
 10
 10
 10
 10
 10
 10
 10
 10
 10
 10
 10
 10
 10
 10
 10
 10
 10
 10
 10
 10
 10
 10
 10
 10
 10
 10
 10
 10
 10
 10
 10
 10
 10
 10
 10
 10
 10
 10
 10
 10
 10
 10
 10
 10
 10
 10
 10
 10
 10
 10
 10
 10
 10
 10
 10
 10
 10
 10
 10
 10
 10
 10
 10
 10
 10
 10
 10
 10
 10
 10
 10
 10
 10
 10
 10
 10
 10
 10
 10
 10
 10
 10
 10
 10
 10
 10
 10
 10
 10
 10
 10
 10
 10
 10
 10
 10
 10
 10
 10
 10
 10
 10
 10
 10
 10
 10
 10
 10
 10
 10
 10
 10
 10
 10
 10
 10
 10
 10
 10
 10
 10
 10
 10
 10
 10
 10
 10
 10
 10
 10
 10
 10
 10
 10
 10
 10
 10
 10
 10
 10
 10
 10
 10
 10
 10
 10
 10
 10
 10
 10
 10
 10
 10
 10
 10
 10
 10
 10
 10
 10
 10
 10
 10
 10
 10
 10
 10
 10
 10
 10
 10
 10
 10
 10
 10
 10
 10
 10
 10
 10
 10
 10
 10
 10
 10
 10
 10
 10
 10
 10
 10
 10
 10
 10
 10
 10
 10
 10
 10
 10
 10
 10
 10
 10
 10
 10
 10
 10
 10
 10
 10
 10
 10
 10
 10
 10
 10
 10
 10
 10
 10
 10
 10
 10
 10
 10
 10
 10
 10
 10
 10
 10
 10
 10
 10
 10
 10
 10
 10
 10
 10
 10
 10
 10
 10
 10
 10
 10
 10
 10
 10
 10
 10
 10
 10
 10
 10
 10
 10
 10
 10
 10
 10
 10
 10
 10
 10
 10
 10
 10
 10
 10
 10
 10
 10
 10
 10
 10
 10
 10
 10
 10
 10
 10
 10
 10
 10
 10
 10
 10
 10
 10
 10
 10
 10
 10
 10
 10
 10
 10
 10
 10
 10
 10
 10
 10
 10
 10
 10
 10
 10
 10
 10
 10
 10
 10
 10
 10
 10
 10
 10
 10
 10
 10
 10
 10
 10
 10
 10
 10
 10
 10
 10
 10
 10
 10
 10
 10
 10
 10
 10
 10
 10
 10
 10
 10
 10
 10
 10
 10
 10
 10
 10
 10
 10
 10
 10
 10
 10
 10
 10
 10
 10
 10
 10
 10
 10
 10
 10
 10
 10
 10
 10
 10
 10
 10
 10
 10
 10
 10
 10
 10
 10
 10
 10
 10
 10
 10
 10
 10
 10
 10
 10
 10
 10
 10
 10
 10
 10
 10
 10
 10
 10
 10
 10
 10
 10
 10
 10
 10
 10
 10
 10
 10
 10
 10
 10
 10
 10
 10
 10
 10
 10
 10
 10
 10
 10
 10
 10
 10
 10
 10
 10
 10
 10
 10
 10
 10
 10
 10
 10
 10
 10
 10
 10
 10
 10
 10
 10
 10
 10
 10
 10
 10
 10
 10
 10
 10
 10
 10
 10
 10
 10
 10
 10
 10
 10
 10
 10
 10
 10
 10
 10
 10
 10
 10
 10
 10
 10
 10
 10
 10
 10
 10
 10
 10
 10
 10
 10
 10
 10
 10
 10
 10
 10
 10
 10
 10
 10
 10
 10
 10
 10
 10
 10
 10
 10
 10
 10
 10
 10
 10
 10
 10
 10
 10
 10
 10
 10
 10
 10
 10
 10
 10
 10
 10
 10
 10
 10
 10
 10
 10
 10
 10
 10
 10
 10
 10
 10
 10
 10
 10
 10
 10
 10
 10
 10
 10
 10
 10
 10
 10
 10
 10
 10
 10
 10
 10
 10
 10
 10
 10
 10
 10
 10
 10
 10
 10
 10
 10
 10
 10
 10
 10
 10
 10
 10
 10
 10
 10
 10
 10
 10
 10
 10
 10
 10
 10
 10
 10
 10
 10
 10
 10
 10
 10
 10
 10
 10
 10
 10
 10
 10
 10
 10
 10
 10
 10
 10
 10
 10
 10
 10
 10
 10
 10
 10
 10
 10
 10
 10
 10
 10
 10
 10
 10
 10
 10
 10
 10
 10
 10
 10
 10
 10
 10
 10
 10
 10
 10
 10
 10
 10
 10
 10
 10
 10
 10
 10
 10
 10
 10
 10
 10
 10
 10
 10
 10
 10
 10
 10
 10
 10
 10
 10
 10
 10
 10
 10
 10
 10
 10
 10
 10
 10
 10
 10
 10
 10
 10
 10
 10
 10
 10
 10
 10
 10
 10
 10
 10
 10
 10
 10
 10
 10
 10
 10
 10
 10
 10
 10
 10
 10
 10
 10
 10
 10
 10
 10
 10
 10
 10
 10
 10
 10
 10
 10
 10
 10
 10
 10
 10
 10
 10
 10
 10
 10
 10
 10
 10
 10
 10
 10
 10
 10
 10
 10
 10
 10
 10
 10
 10
 10
 10
 10
 10
 10
 10
 10
 10
 10
 10
 10
 10
 10
 10
 10
 10
 10
 10
 10
 10
 10
 10
 10
 10
 10
 10
 10
 10
 10
 10
 10
 10
 10
 10
 10
 10
 10
 10
 10
 10
 10
 10
 10
 10
 10
 10
 10
 10
 10
 10
 10
 10
 10
 10
 10
 10
 10
 10
 10
 10
 10
 10
 10
 10
 10
 10
 10
 10
 10
 10
 10
 10
 10
 10
 10
 10
 10
 10
 10
 10
 10
 10
 10
 10
 10
 10
 10
 10
 10
 10
 10
 10
 10
 10
 10
 10
 10
 10
 10
 10
 10
 10
 10
 10
 10
 10
 10
 10
 10
 10
 10
 10
 10
 10
 10
 10
 10
 10
 10
 10
 10
 10
 10
 10
 10
 10
 10
 10
 10
 10
 10
 10
 10
 10
 10
 10
 10
 10
 10
 10
 10
 10
 10
 10
 10
 10
 10
 10
 10
 10
 10
 10
 10
 10
 10
 10
 10
 10
 10
 10
 10
 10
 10
 10
 10
 10
 10
 10
 10
 10
 10
 10
 10
 10
 10
 10
 10
 10
 10
 10
 10
 10
 10
 10
 10
 10
 10
 10
 10
 10
 10
 10
 10
 10
 10
 10
 10
 10
 10
 10
 10
 10
 10
 10
 10
 10
 10
 10
 10
 10
 10
 10
 10
 10
 10
 10
 10
 10
 10
 10
 10
 10
 10
 10
 10
 10
 10
 10
 10
 10
 10
 10
 10
 10
 10
 10
 10
 10
 10
 10
 10
 10
 10
 10
 10
 10
 10
 10
 10
 10
 10
 10
 10
 10
 10
 10
 10
 10
 10
 10
 10
 10
 10
 10
 10
 10
 10
 10
 10
 10
 10
 10
 10
 10
 10
 10
 10
 10
 10
 10
 10
 10
 10
 10
 10
 10
 10
 10
 10
 10
 10
 10
 10
 10
 10
 10
 10
 10
 10
 10
 10
 10
 10
 10
 10
 10
 10
 10
 10
 10
 10
 10
 10
 10
 10
 10
 10
 10
 10
 10
 10
 10
 10
 10
 10
 10
 10
 10
 10
 10
 10
 10
 10
 10
 10
 10
 10
 10
 10
 10
 10
 10
 10
 10
 10
 10
 10
 10
 10
 10
 10
 10
 10
 10
 10
 10
 10
 10
 10
 10
 10
 10
 10
 10
 10
 10
 10
 10
 10
 10
 10
 10
 10
 10
 10
 10
 10
 10
 10
 10
 10
 10
 10
 10
 10
 10
 10
 10
 10
 10
 10
 10
 10
 10
 10
 10
 10
 10
 10
 10
 10
 10
 10
 10
 10
 10
 10
 10
 10
 10
 10
 10
 10
 10
 10
 10
 10
 10
 10
 10
 10
 10
 10
 10
 10
 10
 10
 10
 10
 10
 10
 10
 10
 10
 10
 10
 10
 10
 10
 10
 10
 10
 10
 10
 10
 10
 10
 10
 10
 10
 10
 10
 10
 10
 10
 10
 10
 10
 10
 10
 10
 10
 10
 10
 10
 10
 10
 10
 10
 10
 10
 10
 10
 10
 10
 10
 10
 10
 10
 10
 10
 10
 10
 10
 10
 10
 10
 10
 10
 10
 10
 10
 10
 10
 10
 10
 10
 10
 10
 10
 10
 10
 10
 10
 10
 10
 10
 10
 10
 10
 10
 10
 10
 10
 10
 10
 10
 10
 10
 10
 10
 10
 10
 10
 10
 10
 10
 10
 10
 10
 10
 10
 10
 10
 10
 10
 10
 10
 10
 10
 10
 10
 10
 10
 10
 10
 10
 10
 10
 10
 10
 10
 10
 10
 10
 10
 10
 10
 10
 10
 10
 10
 10
 10
 10
 10
 10
 10
 10
 10
 10
 10
 10
 10
 10
 10
 10
 10
 10
 10
 10
 10
 10
 10
 10
 10
 10
 10
 10
 10
 10
 10
 10
 10
 10
 10
 10
 10
 10
 10
 10
 10
 10
 10
 10
 10
 10
 10
 10
 10
 10
 10
 10
 10
 10
 10
 10
 10
 10
 10
 10
 10
 10
 10
 10
 10
 10
 10
 10
 10
 10
 10
 10
 10
 10
 10
 10
 10
 10
 10
 10
 10
 10
 10
 10
 10
 10
 10
 10
 10
 10
 10
 10
 10
 10
 10
 10
 10
 10
 10
 10
 10
 10
 10
 10
 10
 10
 10
 10
 10
 10
 10
 10
 10
 10
 10
 10
 10
 10
 10
 10
 10
 10
 10
 10
 10
 10
 10
 10
 10
 10
 10
 10
 10
 10
 10
 10
 10
 10
 10
 10
 10
 10
 10
 10
 10
 10
 10
 10
 10
 10
 10
 10
 10
 10
 10
 10
 10
 10
 10
 10
 10
 10
 10
 10
 10
 10
 10
 10
 10
 10
 10
 10
 10
 10
 10
 10
 10
 10
 10
 10
 10
 10
 10
 10
 10
 10
 10
 10
 10
 10
 10
 10
 10
 10
 10
 10
 10
 10
 10
 10
 10
 10
 10
 10
 10
 10
 10
 10
 10
 10
 10
 10
 10
 10
 10
 10
 10
 10
 10
 10
 10
 10
 10
 10
 10
 10
 10
 10
 10
 10
 10
 10
 10
 10
 10
 10
 10
 10
 10
 10
 10
 10
 10
 10
 10
 10
 10
 10
 10
 10
 10
 10
 10
 10
 10
 10
 10
 10
 10
 10
 10
 10
 10
 10
 10
 10
 10
 10
 10
 10
 10
 10
 10
 10
 10
 10
 10
 10
 10
 10
 10
 10
 10
 10
 10
 10
 10
 10
 10
 10
 10
 10
 10
 10
 10
 10
 10
 10
 10
 10
 10
 10
 10
 10
 10
 10
 10
 10
 10
 10
 10
 10
 10
 10
 10
 10
 10
 10
 10
 10
 10
 10
 10
 10
 10
 10
 10
 10
 10
 10
 10
 10
 10
 10
 10
 10
 10
 10
 10
 10
 10
 10
 10
 10
 10
 10
 10
 10
 10
 10
 10
 10
 10
 10
 10
 10
 10
 10
 10
 10
 10
 10
 10
 10
 10
 10
 10
 10
 10
 10
 10
 10
 10
 10
 10
 10
 10
 10
 10
 10
 10
 10
 10
 10
 10
 10
 10
 10
 10
 10
 10
 10
 10
 10
 10
 10
 10
 10
 10
 10
 10
 10
 10
 10
 10
 10
 10
 10
 10
 10
 10
 10
 10
 10
 10
 10
 10
 10
 10
 10
 10
 10
 10
 10
 10
 10
 10
 10
 10
 10
 10
 10
 10
 10
 10
 10
 10
 10
 10
 10
 10
 10
 10
 10
 10
 10
 10
 10
 10
 10
 10
 10
 10
 10
 10
 10
 10
 10
 10
 10
 10
 10
 10
 10
 10
 10
 10
 10
 10
 10
 10
 10
 10
 10
 10
 10
 10
 10
 10
 10
 10
 10
 10
 10
 10
 10
 10
 10
 10
 10
 10
 10
 10
 10
 10
 10
 10
 10
 10
 10
 10
 10
 10
 10
 10
 10
 10
 10
 10
 10
 10
 10
 10
 10
 10
 10
 10
 10
 10
 10
 10
 10
 10
 10
 10
 10
 10
 10
 10
 10
 10
 10
 10
 10
 10
 10
 10
 10
 10
 10
 10
 10
 10
 10
 10
 10
 10
 10
 10
 10
 10
 10
 10
 10
 10
 10
 10
 10
 10
 10
 10
 10
 10
 10
 10
 10
 10
 10
 10
 10
 10
 10
 10
 10
 10
 10
 10
 10
 10
 10
 10
 10
 10
 10
 10
 10
 10
 10
 10
 10
 10
 10
 10
 10
 10
 10
 10
 10
 10
 10
 10
 10
 10
 10
 10
 10
 10
 10
 10
 10
 10
 10
 10
 10
 10
 10
 10
 10
 10
 10
 10
 10
 10
 10
 10
 10
 10
 10
 10
 10
 10
 10
 10
 10
 10
 10
 10
 10
 10
 10
 10
 10
 10
 10
 10
 10
 10
 10
 10
 10
 10
 10
 10
 10
 10
 10
 10
 10
 10
 10
 10
 10
 10
 10
 10
 10
 10
 10
 10
 10
 10
 10
 10
 10
 10
 10
 10
 10
 10
 10
 10
 10
 10
 10
 10
 10
 10
 10
 10
 10
 10
 10
 10
 10
 10
 10
 10
 10
 10
 10
 10
 10
 10
 10
 10
 10
 10
 10
 10
 10
 10
 10
 10
 10
 10
 10
 10
 10
 10
 10
 10
 10
 10
 10
 10
 10
 10
 10
 10
 10
 10
 10
 10
 10
 10
 10
 10
 10
 10
 10
 10
 10
 10
 10
 10
 10
 10
 10
 10
 10
 10
 10
 10
 10
 10
 10
 10
 10
 10
 10
 10
 10
 10
 10
 10
 10
 10
 10
 10
 10
 10
 10
 10
 10
 10
 10
 10
 10
 10
 10
 10
 10
 10
 10
 10
 10
 10
 10
 10
 10
 10
 10
 10
 10
 10
 10
 10
 10
 10
 10
 10
 10
 10
 10
 10
 10
 10
 10
 10
 10
 10
 10
 10
 10
 10
 10
 10
 10
 10
 10
 10
 10
 10
 10
 10
 10
 10
 10
 10
 10
 10
 10
 10
 10
 10
 10
 10
 10
 10
 10
 10
 10
 10
 10
 10
 10
 10
 10
 10
 10
 10
 10
 10
 10
 10
 10
 10
 10
 10
 10
 10
 10
 10
 10
 10
 10
 10
 10
 10
 10
 10
 10
 10
 10
 10
 10
 10
 10
 10
 10
 10
 10
 10
 10
 10
 10
 10
 10
 10
 10
 10
 10
 10
 10
 10
 10
 10
 10
 10
 10
 10
 10
 10
 10
 10
 10
 10
 10
 10
 10
 10
 10
 10
 10
 10
 10
 10
 10
 10
 10
 10
 10
 10
 10
 10
 10
 10
 10
 10
 10
 10
 10
 10
 10
 10
 10
 10
 10
 10
 10
 10
 10
 10
 10
 10
 10
 10
 10
 10
 10
 10
 10
 10
 10
 10
 10
 10
 10
 10
 10
 10
 10
 10
 10
 10
 10
 10
 10
 10
 10
 10
 10
 10
 10
 10
 10
 10
 10
 10
 10
 10
 10
 10
 10
 10
 10
 10
 10
 10
 10
 10
 10
 10
 10
 10
 10
 10
 10
 10
 10
 10
 10
 10
 10
 10
 10
 10
 10
 10
 10
 10
 10
 10
 10
 10
 10
 10
 10
 10
 10
 10
 10
 10
 10
 10
 10
 10
 10
 10
 10
 10
 10
 10
 10
 10
 10
 10
 10
 10
 10
 10
 10
 10
 10
 10
 10
 10
 10
 10
 10
 10
 10
 10
 10
 10
 10
 10
 10
 10
 10
 10
 10
 10
 10
 10
 10
 10
 10
 10
 10
 10
 10
 10
 10
 10
 10
 10
 10
 10
 10
 10
 10
 10
 10
 10
 10
 10
 10
 10
 10
 10
 10
 10
 10
 10
 10
 10
 10
 10
 10
 10
 10
 10
 10
 10
 10
 10
 10
 10
 10
 10
 10
 10
 10
 10
 10
 10
 10
 10
 10
 10
 10
 10
 10
 10
 10
 10
 10
 10
 10
 10
 10
 10
 10
 10
 10
 10
 10
 10
 10
 10
 10
 10
 10
 10
 10
 10
 10
 10
 10
 10
 10
 10
 10
 10
 10
 10
 10
 10
 10
 10
 10
 10
 10
 10
 10
 10
 10
 10
 10
 10
 10
 10
 10
 10
 10
 10
 10
 10
 10
 10
 10
 10
 10
 10
 10
 10
 10
 10
 10
 10
 10
 10
 10
 10
 10
 10
 10
 10
 10
 10
 10
 10
 10
 10
 10
 10
 10
 10
 10
 10
 10
 10
 10
 10
 10
 10
 10
 10
 10
 10
 10
 10
 10
 10
 10
 10
 10
 10
 10
 10
 10
 10
 10
 10
 10
 10
 10
 10
 10
 10
 10
 10
 10
 10
 10
 10
 10
 10
 10
 10
 10
 10
 10
 10
 10
 10
 10
 10
 10
 10
 10
 10
 10
 10
 10
 10
 10
 10
 10
 10
 10
 10
 10
 10
 10
 10
 10
 10
 10
 10
 10
 10
 10
 10
 10
 10
 10
 10
 10
 10
 10
 10
 10
 10
 10
 10
 10
 10
 10
 10
 10
 10
 10
 10
 10
 10
 10
 10
 10
 10
 10
 10
 10
 10
 10
 10
 10
 10
 10
 10
 10
 10
 10
 10
 10
 10
 10
 10
 10
 10
 10
 10
 10
 10
 10
 10
 10
 10
 10
 10
 10
 10
 10
 10
 10
 10
 10
 10
 10
 10
 10
 10
 10
 10
 10
 10
 10
 10
 10
 10
 10
 10
 10
 10
 10
 10
 10
 10
 10
 10
 10
 10
 10
 10
 10
 10
 10
 10
 10
 10
 10
 10
 10
 10
 10
 10
 10
 10
 10
 10
 10
 10
 10
 10
 10
 10
 10
 10
 10
 10
 10
 10
 10
 10
 10
 10
 10
 10
 10
 10
 10
 10
 10
 10
 10
 10
 10
 10
 10
 10
 10
 10
 10
 10
 10
 10
 10
 10
 10
 10
 10
 10
 10
 10
 10
 10
 10
 10
 10
 10
 10
 10
 10
 10
 10
 10
 10
 10
 10
 10
 10
 10
 10
 10
 10
 10
 10
 10
 10
 10
 10
 10
 10
 10
 10
 10
 10
 10
 10
 10
 10
 10
 10
 10
 10
 10
 10
 10
 10
 10
 10
 10
 10
 10
 10
 10
 10
 10
 10
 10
 10
 10
 10
 10
 10
 10
 10
 10
 10
 10
 10
 10
 10
 10
 10
 10
 10
 10
 10
 10
 10
 10
 10
 10
 10
 10
 10
 10
 10
 10
 10
 10
 10
 10
 10
 10
 10
 10
 10
 10
 10
 10
 10
 10
 10
 10
 10
 10
 10
 10
 10
 10
 10
 10
 10
 10
 10
 10
 10
 10
 10
 10
 10
 10
 10
 10
 10
 10
 10
 10
 10
 10
 10
 10
 10
 10
 10
 10
 10
 10
 10
 10
 10
 10
 10
 10
 10
 10
 10
 10
 10
 10
 10
 10
 10
 10
 10
 10
 10
 10
 10
 10
 10
 10
 10
 10
 10
 10
 10
 10
 10
 10
 10
 10
 10
 10
 10
 10
 10
 10
 10
 10
 10
 10
 10
 10
 10
 10
 10
 10
 10
 10
 10
 10
 10
 10
 10
 10
 10
 10
 10
 10
 10
 10
 10
 10
 10
 10
 10
 10
 10
 10
 10
 10
 10
 10
 10
 10
 10
 10
 10
 10
 10
 10
 10
 10
 10
 10
 10
 10
 10
 10
 10
 10
 10
 10
 10
 10
 10
 10
 10
 10
 10
 10
 10
 10
 10
 10
 10
 10
 10
 10
 10
 10
 10
 10
 10
 10
 10
 10
 10
 10
 10
 10
 10
 10
 10
 10
 10
 10
 10
 10
 10
 10
 10
 10
 10
 10
 10
 10
 10
 10
 10
 10
 10
 10
 10
 10
 10
 10
 10
 10
 10
 10
 10
 10
 10
 10
 10
 10
 10
 10
 10
 10
 10
 10
 10
 10
 10
 10
 10
 10
 10
 10
 10
 10
 10
 10
 10
 10
 10
 10
 10
 10
 10
 10
 10
 10
 10
 10
 10
 10
 10
 10
 10
 10
 10
 10
 10
 10
 10
 10
 10
 10
 10
 10
 10
 10
 10
 10
 10
 10
 10
 10
 10
 10
 10
 10
 10
 10
 10
 10
 10
 10
 10
 10
 10
 10
 10
 10
 10
 10
 10
 10
 10
 10
 10
 10
 10
 10
 10
 10
 10
 10
 10
 10
 10
 10
 10
 10
 10
 10
 10
 10
 10
 10
 10
 10
 10
 10
 10
 10
 10
 10
 10
 10
 10
 10
 10
 10
 10
 10
 10
 10
 10
 10
 10
 10
 10
 10
 10
 10
 10
 10
 10
 10
 10
 10
 10
 10
 10
 10
 10
 10
 10
 10
 10
 10
 10
 10
 10
 10
 10
 10
 10
 10
 10
 10
 10
 10
 10
 10
 10
 10
 10
 10
 10
 10
 10
 10
 10
 10
 10
 10
 10
 10
 10
 10
 10
 10
 10
 10
 10
 10
 10
 10
 10
 10
 10
 10
 10
 10
 10
 10
 10
 10
 10
 10
 10
 10
 10
 10
 10
 10
 10
 10
 10
 10
 10
 10
 10
 10
 10
 10
 10
 10
 10
 10
 10
 10
 10
 10
 10
 10
 10
 10
 10
 10
 10
 10
 10
 10
 10
 10
 10
 10
 10
 10
 10
 10
 10
 10
 10
 10
 10
 10
 10
 10
 10
 10
 10
 10
 10
 10
 10
 10
 10
 10
 10
 10
 10
 10
 10
 10
 10
 10
 10
 10
 10
 10
 10
 10
 10
 10
 10
 10
 10
 10
 10
 10
 10
 10
 10
 10
 10
 10
 10
 10
 10
 10
 10
 10
 10
 10
 10
 10
 10
 10
 10
 10
 10
 10
 10
 10
 10
 10
 10
 10
 10
 10
 10
 10
 10
 10
 10
 10
 10
 10
 10
 10
 10
 10
 10
 10
 10
 10
 10
 10
 10
 10
 10
 10
 10
 10
 10
 10
 10
 10
 10
 10
 10
 10
 10
 10
 10
 10
 10
 10
 10
 10
 10
 10
 10
 10
 10
 10
 10
 10
 10
 10
 10
 10
 10
 10
 10
 10
 10
 10
 10
 10
 10
 10
 10
 10
 10
 10
 10
 10
 10
 10
 10
 10
 10
 10
 10
 10
 10
 10
 10
 10
 10
 10
 10
 10
 10
 10
 10
 10
 10
 10
 10
 10
 10
 10
 10
 10
 10
 10
 10
 10
 10
 10
 10
 10
 10
 10
 10
 10
 10
 10
 10
 10
 10
 10
 10
 10
 10
 10
 10
 10
 10
 10
 10
 10
 10
 10
 10
 10
 10
 10
 10
 10
 10
 10
 10
 10
 10
 10
 10
 10
 10
 10
 10
 10
 10
 10
 10
 10
 10
 10
 10
 10
 10
 10
 10
 10
 10
 10
 10
 10
 10
 10
 10
 10
 10
 10
 10
 10
 10
 10
 10
 10
 10
 10
 10
 10
 10
 10
 10
 10
 10
 10
 10
 10
 10
 10
 10
 10
 10
 10
 10
 10
 10
 10
 10
 10
 10
 10
 10
 10
 10
 10
 10
 10
 10
 10
 10
 10
 10
 10
 10
 10
 10
 10
 10
 10
 10
 10
 10
 10
 10
 10
 10
 10
 10
 10
 10
 10
 10
 10
 10
 10
 10
 10
 10
 10
 10
 10
 10
 10
 10
 10
 10
 10
 10
 10
 10
 10
 10
 10
 10
 10
 10
 10
 10
 10
 10
 10
 10
 10
 10
 10
 10
 10
 10
 10
 10
 10
 10
 10
 10
 10
 10
 10
 10
 10
 10
 10
 10
 10
 10
 10
 10
 10
 10
 10
 10
 10
 10
 10
 10
 10
 10
 10
 10
 10
 10
 10
 10
 10
 10
 10
 10
 10
 10
 10
 10
 10
 10
 10
 10
 10
 10
 10
 10
 10
 10
 10
 10
 10
 10
 10
 10
 10
 10
 10
 10
 10
 10
 10
 10
 10
 10
 10
 10
 10
 10
 10
 10
 10
 10
 10
 10
 10
 10
 10
 10
 10
 10
 10
 10
 10
 10
 10
 10
 10
 10
 10
 10
 10
 10
 10
 10
 10
 10
 10
 10
 10
 10
 10
 10
 10
 10
 10
 10
 10
 10
 10
 10
 10
 10
 10
 10
 10
 10
 10
 10
 10
 10
 10
 10
 10
 10
 10
 10
 10
 10
 10
 10
 10
 10
 10
 10
 10
 10
 10
 10
 10
 10
 10
 10
 10
 10
 10
 10
 10
 10
 10
 10
 10
 10
 10
 10
 10
 10
 10
 10
 10
 10
 10
 10
 10
 10
 10
 10
 10
 10
 10
 10
 10
 10
 10
 10
 10
 10
 10
 10
 10
 10
 10
 10
 10
 10
 10
 10
 10
 10
 10
 10
 10
 10
 10
 10
 10
 10
 10
 10
 10
 10
 10
 10
 10
 10
 10
 10
 10
 10
 10
 10
 10
 10
 10
 10
 10
 10
 10
 10
 10
 10
 10
 10
 10
 10
 10
 10
 10
 10
 10
 10
 10
 10
 10
 10
 10
 10
 10
 10
 10
 10
 10
 10
 10
 10
 10
 10
 10
 10
 10
 10
 10
 10
 10
 10
 10
 10
 10
 10
 10
 10
 10
 10
 10
 10
 10
 10
 10
 10
 10
 10
 10
 10
 10
 10
 10
 10
 10
 10
 10
 10
 10
 10
 10
 10
 10
 10
 10
 10
 10
 10
 10
 10
 10
 10
 10
 10
 10
 10
 10
 10
 10
 10
 10
 10
 10
 10
 10
 10
 10
 10
 10
 10
 10
 10
 10
 10
 10
 10
 10
 10
 10
 10
 10
 10
 10
 10
 10
 10
 10
 10
 10
 10
 10
 10
 10
 10
 10
 10
 10
 10
 10
 10
 10
 10
 10
 10
 10
 10
 10
 10
 10
 10
 10
 10
 10
 10
 10
 10
 10
 10
 10
 10
 10
 10
 10
 10
 10
 10
 10
 10
 10
 10
 10
 10
 10
 10
 10
 10
 10
 10
 10
 10
 10
 10
 10
 10
 10
 10
 10
 10
 10
 10
 10
 10
 10
 10
 10
 10
 10
 10
 10
 10
 10
 10
 10
 10
 10
 10
 10
 10
 10
 10
 10
 10
 10
 10
 10
 10
 10
 10
 10
 10
 10
 10
 10
 10
 10
 10
 10
 10
 10
 10
 10
 10
 10
 10
 10
 10
 10
 10
 10
 10
 10
 10
 10
 10
 10
 10
 10
 10
 10
 10
 10
 10
 10
 10
 10
 10
 10
 10
 10
 10
 10
 10
 10
 10
 10
 10
 10
 10
 10
 10
 10
 10
 10
 10
 10
 10
 10
 10
 10
 10
 10
 10
 10
 10
 10
 10
 10
 10
 10
 10
 10
 10
 10
 10
 10
 10
 10
 10
 10
 10
 10
 10
 10
 10
 10
 10
 10
 10
 10
 10
 10
 10
 10
 10
 10
 10
 10
 10
 10
 10
 10
 10
 10
 10
 10
 10
 10
 10
 10
 10
 10
 10
 10
 10
 10
 10
 10
 10
 10
 10
 10
 10
 10
 10
 10
 10
 10
 10
 10
 10
 10
 10
 10
 10
 10
 10
 10
 10
 10
 10
 10
 10
 10
 10
 10
 10
 10
 10
 10
 10
 10
 10
 10
 10
 10
 10
 10
 10
 10
 10
 10
 10
 10
 10
 10
 10
 10
 10
 10
 10
 10
 10
 10
 10
 10
 10
 10
 10
 10
 10
 10
 10
 10
 10
 10
 10
 10
 10
 10
 10
 10
 10
 10
 10
 10
 10
 10
 10
 10
 10
 10
 10
 10
 10
 10
 10
 10
 10
 10
 10
 10
 10
 10
 10
 10
 10
 10
 10
 10
 10
 10
 10
 10
 10
 10
 10
 10
 10
 10
 10
 10
 10
 10
 10
 10
 10
 10
 10
 10
 10
 10
 10
 10
 10
 10
 10
 10
 10
 10
 10
 10
 10
 10
 10
 10
 10
 10
 10
 10
 10
 10
 10
 10
 10
 10
 10
 10
 10
 10
 10
 10
 10
 10
 10
 10
 10
 10
 10
 10
 10
 10
 10
 10
 10
 10
 10
 10
 10
 10
 10
 10
 10
 10
 10
 10
 10
 10
 10
 10
 10
 10
 10
 10
 10
 10
 10
 10
 10
 10
 10
 10
 10
 10
 10
 10
 10
 10
 10
 10
 10
 10
 10
 10
 10
 10
 10
 10
 10
 10
 10
 10
 10
 10
 10
 10
 10
 10
 10
 10
 10
 10
 10
 10
 10
 10
 10
 10
 10
 10
 10
 10
 10
 10
 10
 10
 10
 10
 10
 10
 10
 10
 10
 10
 10
 10
 10
 10
 10
 10
 10
 10
 10
 10
 10
 10
 10
 10
 10
 10
 10
 10
 10
 10
 10
 10
 10
 10
 10
 10
 10
 10
 10
 10
 10
 10
 10
 10
 10
 10
 10
 10
 10
 10
 10
 10
 10
 10
 10
 10
 10
 10
 10
 10
 10
 10
 10
 10
 10
 10
 10
 10
 10
 10
 10
 10
 10
 10
 10
 10
 10
 10
 10
 10
 10
 10
 10
 10
 10
 10
 10
 10
 10
 10
 10
 10
 10
 10
 10
 10
 10
 10
 10
 10
 10
 10
 10
 10
 10
 10
 10
 10
 10
 10
 10
 10
 10
 10
 10
 10
 10
 10
 10
 10
 10
 10
 10
 10
 10
 10
 10
 10
 10
 10
 10
 10
 10
 10
 10
 10
 10
 10
 10
 10
 10
 10
 10
 10
 10
 10
 10
 10
 10
 10
 10
 10
 10
 10
 10
 10
 10
 10
 10
 10
 10
 10
 10
 10
 10
 10
 10
 10
 10
 10
 10
 10
 10
 10
 10
 10
 10
 10
 10
 10
 10
 10
 10
 10
 10
 10
 10
 10
 10
 10
 10
 10
 10
 10
 10
 10
 10
 10
 10
 10
 10
 10
 10
 10
 10
 10
 10
 10
 10
 10
 10
 10
 10
 10
 10
 10
 10
 10
 10
 10
 10
 10
 10
 10
 10
 10
 10
 10
 10
 10
 10
 10
 10
 10
 10
 10
 10
 10
 10
 10
 10
 10
 10
 10
 10
 10
 10
 10
 10
 10
 10
 10
 10
 10
 10
 10
 10
 10
 10
 10
 10
 10
 10
 10
 10
 10
 10
 10
 10
 10
 10
 10
 10
 10
 10
 10
 10
 10
 10
 10
 10
 10
 10
 10
 10
 10
 10
 10
 10
 10
 10
 10
 10
 10
 10
 10
 10
 10
 10
 10
 10
 10
 10
 10
 10
 10
 10
 10
 10
 10
 10
 10
 10
 10
 10
 10
 10
 10
 10
 10
 10
 10
 10
 10
 10
 10
 10
 10
 10
 10
 10
 10
 10
 10
 10
 10
 10
 10
 10
 10
 10
 10
 10
 10
 10
 10
 10
 10
 10
 10
 10
 10
 10
 10
 10
 10
 10
 10
 10
 10
 10
 10
 10
 10
 10
 10
 10
 10
 10
 10
 10
 10
 10
 10
 10
 10
 10
 10
 10
 10
 10
 10
 10
 10
 10
 10
 10
 10
 10
 10
 10
 10
 10
 10
 10
 10
 10
 10
 10
 10
 10
 10
 10
 10
 10
 10
 10
 10
 10
 10
 10
 10
 10
 10
 10
 10
 10
 10
 10
 10
 10
 10
 10
 10
 10
 10
 10
 10
 10
 10
 10
 10
 10
 10
 10
 10
 10
 10
 10
 10
 10
 10
 10
 10
 10
 10
 10
 10
 10
 10
 10
 10
 10
 10
 10
 10
 10
 10
 10
 10
 10
 10
 10
 10
 10
 10
 10
 10
 10
 10
 10
 10
 10
 10
 10
 10
 10
 10
 10
 10
 10
 10
 10
 10
 10
 10
 10
 10
 10
 10
 10
 10
 10
 10
 10
 10
 10
 10
 10
 10
 10
 10
 10
 10
 10
 10
 10
 10
 10
 10
 10
 10
 10
 10
 10
 10
 10
 10
 10
 10
 10
 10
 10
 10
 10
 10
 10
 10
 10
 10
 10
 10
 10
 10
 10
 10
 10
 10
 10
 10
 10
 10
 10
 10
 10
 10
 10
 10
 10
 10
 10
 10
 10
 10
 10
 10
 10
 10
 10
 10
 10
 10
 10
 10
 10
 10
 10
 10
 10
 10
 10
 10
 10
 10
 10
 10
 10
 10
 10
 10
 10
 10
 10
 10
 10
 10
 10
 10
 10
 10
 10
 10
 10
 10
 10
 10
 10
 10
 10
 10
 10
 10
 10
 10
 10
 10
 10
 10
 10
 10
 10
 10
 10
 10
 10
 10
 10
 10
 10
 10
 10
 10
 10
 10
 10
 10
 10
 10
 10
 10
 10
 10
 10
 10
 10
 10
 10
 10
 10
 10
 10
 10
 10
 10
 10
 10
 10
 10
 10
 10
 10
 10
 10
 10
 10
 10
 10
 10
 10
 10
 10
 10
 10
 10
 10
 10
 10
 10
 10
 10
 10
 10
 10
 10
 10
 10
 10
 10
 10
 10
 10
 10
 10
 10
 10
 10
 10
 10
 10
 10
 10
 10
 10
 10
 10
 10
 10
 10
 10
 10
 10
 10
 10
 10
 10
 10
 10
 10
 10
 10
 10
 10
 10
 10
 10
 10
 10
 10
 10
 10
 10
 10
 10
 10
 10
 10
 10
 10
 10
 10
 10
 10
 10
 10
 10
 10
 10
 10
 10
 10
 10
 10
 10
 10
 10
 10
 10
 10
 10
 10
 10
 10
 10
 10
 10
 10
 10
 10
 10
 10
 10
 10
 10
 10
 10
 10
 10
 10
 10
 10
 10
 10
 10
 10
 10
 10
 10
 10
 10
 10
 10
 10
 10
 10
 10
 10
 10
 10
 10
 10
 10
 10
 10
 10
 10
 10
 10
 10
 10
 10
 10
 10
 10
 10
 10
 10
 10
 10
 10
 10
 10
 10
 10
 10
 10
 10
 10
 10
 10
 10
 10
 10
 10
 10
 10
 10
 10
 10
 10
 10
 10
 10
 10
 10
 10
 10
 10
 10
 10
 10
 10
 10
 10
 10
 10
 10
 10
 10
 10
 10
 10
 10
 10
 10
 10
 10
 10
 10
 10
 10
 10
 10
 10
 10
 10
 10
 10
 10
 10
 10
 10
 10
 10
 10
 10
 10
 10
 10
 10
 10
 10
 10
 10
 10
 10
 10
 10
 10
 10
 10
 10
 10
 10
 10
 10
 10
 10
 10
 10
 10
 10
 10
 10
 10
 10
 10
 10
 10
 10
 10
 10
 10
 10
 10
 10
 10
 10
 10
 10
 10
 10
 10
 10
 10
 10
 10
 10
 10
 10
 10
 10
 10
 10
 10
 10
 10
 10
 10
 10
 10
 10
 10
 10
 10
 10
 10
 10
 10
 10
 10
 10
 10
 10
 10
 10
 10
 10
 10
 10
 10
 10
 10
 10
 10
 10
 10
 10
 10
 10
 10
 10
 10
 10
 10
 10
 10
 10
 10
 10
 10
 10
 10
 10
 10
 10
 10
 10
 10
 10
 10
 10
 10
 10
 10
 10
 10
 10
 10
 10
 10
 10
 10
 10
 10
 10
 10
 10
 10
 10
 10
 10
 10
 10
 10
 10
 10
 10
 10
 10
 10
 10
 10
 10
 10
 10
 10
 10
 10
 10
 10
 10
 10
 10
 10
 10
 10
 10
 10
 10
 10
 10
 10
 10
 10
 10
 10
 10
 10
 10
 10
 10
 10
 10
 10
 10
 10
 10
 10
 10
 10
 10
 10
 10
 10
 10
 10
 10
 10
 10
 10
 10
 10
 10
 10
 10
 10
 10
 10
 10
 10
 10
 10
 10
 10
 10
 10
 10
 10
 10
 10
 10
 10
 10
 10
 10
 10
 10
 10
 10
 10
 10
 10
 10
 10
 10
 10
 10
 10
 10
 10
 10
 10
 10
 10
 10
 10
 10
 10
 10
 10
 10
 10
 10
 10
 10
 10
 10
 10
 10
 10
 10
 10
 10
 10
 10
 10
 10
 10
 10
 10
 10
 10
 10
 10
 10
 10
 10
 10
 10
 10
 10
 10
 10
 10
 10
 10
 10
 10
 10
 10
 10
 10
 10
 10
 10
 10
 10
 10
 10
 10
 10
 10
 10
 10
 10
 10
 10
 10
 10
 10
 10
 10
 10
 10
 10
 10
 10
 10
 10
 10
 10
 10
 10
 10
 10
 10
 10
 10
 10
 10
 10
 10
 10
 10
 10
 10
 10
 10
 10
 10
 10
 10
 10
 10
 10
 10
 10
 10
 10
 10
 10
 10
 10
 10
 10
 10
 10
 10
 10
 10
 10
 10
 10
 10
 10
 10
 10
 10
 10
 10
 10
 10
 10
 10
 10
 10
 10
 10
 10
 10
 10
 10
 10
 10
 10
 10
 10
 10
 10
 10
 10
 10
 10
 10
 10
 10
 10
 10
 10
 10
 10
 10
 10
 10
 10
 10
 10
 10
 10
 10
 10
 10
 10
 10
 10
 10
 10
 10
 10
 10
 10
 10
 10
 10
 10
 10
 10
 10
 10
 10
 10
 10
 10
 10
 10
 10
 10
 10
 10
 10
 10
 10
 10
 10
 10
 10
 10
 10
 10
 10
 10
 10
 10
 10
 10
 10
 10
 10
 10
 10
 10
 10
 10
 10
 10
 10
 10
 10
 10
 10
 10
 10
 10
 10
 10
 10
 10
 10
 10
 10
 10
 10
 10
 10
 10
 10
 10
 10
 10
 10
 10
 10
 10
 10
 10
 10
 10
 10
 10
 10
 10
 10
 10
 10
 10
 10
 10
 10
 10
 10
 10
 10
 10
 10
 10
 10
 10
 10
 10
 10
 10
 10
 10
 10
 10
 10
 10
 10
 10
 10
 10
 10
 10
 10
 10
 10
 10
 10
 10
 10
 10
 10
 10
 10
 10
 10
 10
 10
 10
 10
 10
 10
 10
 10
 10
 10
 10
 10
 10
 10
 10
 10
 10
 10
 10
 10
 10
 10
 10
 10
 10
 10
 10
 10
 10
 10
 10
 10
 10
 10
 10
 10
 10
 10
 10
 10
 10
 10
 10
 10
 10
 10
 10
 10
 10
 10
 10
 10
 10
 10
 10
 10
 10
 10
 10
 10
 10
 10
 10
 10
 10
 10
 10
 10
 10
 10
 10
 10
 10
 10
 10
 10
 10
 10
 10
 10
 10
 10
 10
 10
 10
 10
 10
 10
 10
 10
 10
 10
 10
 10
 10
 10
 10
 10
 10
 10
 10
 10
 10
 10
 10
 10
 10
 10
 10
 10
 10
 10
 10
 10
 10
 10
 10
 10
 10
 10
 10
 10
 10
 10
 10
 10
 10
 10
 10
 10
 10
 10
 10
 10
 10
 10
 10
 10
 10
 10
 10
 10
 10
 10
 10
 10
 10
 10
 10
 10
 10
 10
 10
 10
 10
 10
 10
 10
 10
 10
 10
 10
 10
 10
 10
 10
 10
 10
 10
 10
 10
 10
 10
 10
 10
 10
 10
 10
 10
 10
 10
 10
 10
 10
 10
 10
 10
 10
 10
 10
 10
 10
 10
 10
 10
 10
 10
 10
 10
 10
 10
 10
 10
 10
 10
 10
 10
 10
 10
 10
 10
 10
 10
 10
 10
 10
 10
 10
 10
 10
 10
 10
 10
 10
 10
 10
 10
 10
 10
 10
 10
 10
 10
 10
 10
 10
 10
 10
 10
 10
 10
 10
 10
 10
 10
 10
 10
 10
 10
 10
 10
 10
 10
 10
 10
 10
 10
 10
 10
 10
 10
 10
 10
 10
 10
 10
 10
 10
 10
 10
 10
 10
 10
 10
 10
 10
 10
 10
 10
 10
 10
 10
 10
 10
 10
 10
 10
 10
 10
 10
 10
 10
 10
 10
 10
 10
 10
 10
 10
 10
 10
 10
 10
 10
 10
 10
 10
 10
 10
 10
 10
 10
 10
 10
 10
 10
 10
 10
 10
 10
 10
 10
 10
 10
 10
 10
 10
 10
 10
 10
 10
 10
 10
 10
 10
 10
 10
 10
 10
 10
 10
 10
 10
 10
 10
 10
 10
 10
 10
 10
 10
 10
 10
 10
 10
 10
 10
 10
 10
 10
 10
 10
 10
 10
 10
 10
 10
 10
 10
 10
 10
 10
 10
 10
 10
 10
 10
 10
 10
 10
 10
 10
 10
 10
 10
 10
 10
 10
 10
 10
 10
 10
 10
 10
 10
 10
 10
 10
 10
 10
 10
 10
 10
 10
 10
 10
 10
 10
 10
 10
 10
 10
 10
 10
 10
 10
 10
 10
 10
 10
 10
 10
 10
 10
 10
 10
 10
 10
 10
 10
 10
 10
 10
 10
 10
 10
 10
 10
 10
 10
 10
 10
 10
 10
 10
 10
 10
 10
 10
 10
 10
 10
 10
 10
 10
 10
 10
 10
 10
 10
 10
 10
 10
 10
 10
 10
 10
 10
 10
 10
 10
 10
 10
 10
 10
 10
 10
 10
 10
 10
 10
 10
 10
 10
 10
 10
 10
 10
 10
 10
 10
 10
 10
 10
 10
 10
 10
 10
 10
 10
 10
 10
 10
 10
 10
 10
 10
 10
 10
 10
 10
 10
 10
 10
 10
 10
 10
 10
 10
 10
 10
 10
 10
 10
 10
 10
 10
 10
 10
 10
 10
 10
 10
 10
 10
 10
 10
CELL_DATA      6584
 SCALARS mat            int           1
LOOKUP_TABLE default
         1
         1
         1
         1
         1
         1
         1
         1
         1
         1
         1
         1
         1
         1
         1
         1
         1
         1
         1
         1
         1
         1
         1
         1
         1
         1
         1
         1
         1
         1
         1
         1
         1
         1
         1
         1
         1
         1
         1
         1
         1
         1
         1
         1
         1
         1
         1
         1
         1
         1
         1
         1
         1
         1
         1
         1
         1
         1
         1
         1
         1
         1
         1
         1
         1
         1
         1
         1
         1
         1
         1
         1
         1
         1
         1
         1
         1
         1
         1
         1
         1
         1
         1
         1
         1
         1
         1
         1
         1
         1
         1
         1
         1
         1
         1
         1
         1
         1
         1
         1
         1
         1
         1
         1
         1
         1
         1
         1
         1
         1
         1
         1
         1
         1
         1
         1
         1
         1
         1
         1
         1
         1
         1
         1
         1
         1
         1
         1
         1
         1
         1
         1
         1
         1
         1
         1
         1
         1
         1
         1
         1
         1
         1
         1
         1
         1
         1
         1
         1
         1
         1
         1
         1
         1
         1
         1
         1
         1
         1
         1
         1
         1
         1
         1
         1
         1
         1
         1
         1
         1
         1
         1
         1
         1
         1
         1
         1
         1
         1
         1
         1
         1
         1
         1
         1
         1
         1
         1
         1
         1
         1
         1
         1
         1
         1
         1
         1
         1
         1
         1
         1
         1
         1
         1
         1
         1
         1
         1
         1
         1
         1
         1
         1
         1
         1
         1
         1
         1
         1
         1
         1
         1
         1
         1
         1
         1
         1
         1
         1
         1
         1
         1
         1
         1
         1
         1
         1
         1
         1
         1
         1
         1
         1
         1
         1
         1
         1
         1
         1
         1
         1
         1
         1
         1
         1
         1
         1
         1
         1
         1
         1
         1
         1
         1
         1
         1
         1
         1
         1
         1
         1
         1
         1
         1
         1
         1
         1
         1
         1
         1
         1
         1
         1
         1
         1
         1
         1
         1
         1
         1
         1
         1
         1
         1
         1
         1
         1
         1
         1
         1
         1
         1
         1
         1
         1
         1
         1
         1
         1
         1
         1
         1
         1
         1
         1
         1
         1
         1
         1
         1
         1
         1
         1
         1
         1
         1
         1
         1
         1
         1
         1
         1
         1
         1
         1
         1
         1
         1
         1
         1
         1
         1
         1
         1
         1
         1
         1
         1
         1
         1
         1
         1
         1
         1
         1
         1
         1
         1
         1
         1
         1
         1
         1
         1
         1
         1
         1
         1
         1
         1
         1
         1
         1
         1
         1
         1
         1
         1
         1
         1
         1
         1
         1
         1
         1
         1
         1
         1
         1
         1
         1
         1
         1
         1
         1
         1
         1
         1
         1
         1
         1
         1
         1
         1
         1
         1
         1
         1
         1
         1
         1
         1
         1
         1
         1
         1
         1
         1
         1
         1
         1
         1
         1
         1
         1
         1
         1
         1
         1
         1
         1
         1
         1
         1
         1
         1
         1
         1
         1
         1
         1
         1
         1
         1
         1
         1
         1
         1
         1
         1
         1
         1
         1
         1
         1
         1
         1
         1
         1
         1
         1
         1
         1
         1
         1
         1
         1
         1
         1
         1
         1
         1
         1
         1
         1
         1
         1
         1
         1
         1
         1
         1
         1
         1
         1
         1
         1
         1
         1
         1
         1
         1
         1
         1
         1
         1
         1
         1
         1
         1
         1
         1
         1
         1
         1
         1
         1
         1
         1
         1
         1
         1
         1
         1
         1
         1
         1
         1
         1
         1
         1
         1
         1
         1
         1
         1
         1
         1
         1
         1
         1
         1
         1
         1
         1
         1
         1
         1
         1
         1
         1
         1
         1
         1
         1
         1
         1
         1
         1
         1
         1
         1
         1
         1
         1
         1
         1
         1
         1
         1
         1
         1
         1
         1
         1
         1
         1
         1
         1
         1
         1
         1
         1
         1
         1
         1
         1
         1
         1
         1
         1
         1
         1
         1
         1
         1
         1
         1
         1
         1
         1
         1
         1
         1
         1
         1
         1
         1
         1
         1
         1
         1
         1
         1
         1
         1
         1
         1
         1
         1
         1
         1
         1
         1
         1
         1
         1
         1
         1
         1
         1
         1
         1
         1
         1
         1
         1
         1
         1
         1
         1
         1
         1
         1
         1
         1
         1
         1
         1
         1
         1
         1
         1
         1
         1
         1
         1
         1
         1
         1
         1
         1
         1
         1
         1
         1
         1
         1
         1
         1
         1
         1
         1
         1
         1
         1
         1
         1
         1
         1
         1
         1
         1
         1
         1
         1
         1
         1
         1
         1
         1
         1
         1
         1
         1
         1
         1
         1
         1
         1
         1
         1
         1
         1
         1
         1
         1
         1
         1
         1
         1
         1
         1
         1
         1
         1
         1
         1
         1
         1
         1
         1
         1
         1
         1
         1
         1
         1
         1
         1
         1
         1
         1
         1
         1
         1
         1
         1
         1
         1
         1
         1
         1
         1
         1
         1
         1
         1
         1
         1
         1
         1
         1
         1
         1
         1
         1
         1
         1
         1
         1
         1
         1
         1
         1
         1
         1
         1
         1
         1
         1
         1
         1
         1
         1
         1
         1
         1
         1
         1
         1
         1
         1
         1
         1
         1
         1
         1
         1
         1
         1
         1
         1
         1
         1
         1
         1
         1
         1
         1
         1
         1
         1
         1
         1
         1
         1
         1
         1
         1
         1
         1
         1
         1
         1
         1
         1
         1
         1
         1
         1
         1
         1
         1
         1
         1
         1
         1
         1
         1
         1
         1
         1
         1
         1
         1
         1
         1
         1
         1
         1
         1
         1
         1
         1
         1
         1
         1
         1
         1
         1
         1
         1
         1
         1
         1
         1
         1
         1
         1
         1
         1
         1
         1
         1
         1
         1
         1
         1
         1
         1
         1
         1
         1
         1
         1
         1
         1
         1
         1
         1
         1
         1
         1
         1
         1
         1
         1
         1
         1
         1
         1
         1
         1
         1
         1
         1
         1
         1
         1
         1
         1
         1
         1
         1
         1
         1
         1
         1
         1
         1
         1
         1
         1
         1
         1
         1
         1
         1
         1
         1
         1
         1
         1
         1
         1
         1
         1
         1
         1
         1
         1
         1
         1
         1
         1
         1
         1
         1
         1
         1
         1
         1
         1
         1
         1
         1
         1
         1
         1
         1
         1
         1
         1
         1
         1
         1
         1
         1
         1
         1
         1
         1
         1
         1
         1
         1
         1
         1
         1
         1
         1
         1
         1
         1
         1
         1
         1
         1
         1
         1
         1
         1
         1
         1
         1
         1
         1
         1
         1
         1
         1
         1
         1
         1
         1
         1
         1
         1
         1
         1
         1
         1
         1
         1
         1
         1
         1
         1
         1
         1
         1
         1
         1
         1
         1
         1
         1
         1
         1
         1
         1
         1
         1
         1
         1
         1
         1
         1
         1
         1
         1
         1
         1
         1
         1
         1
         1
         1
         1
         1
         1
         1
         1
         1
         1
         1
         1
         1
         1
         1
         1
         1
         1
         1
         1
         1
         1
         1
         1
         1
         1
         1
         1
         1
         1
         1
         1
         1
         1
         1
         1
         1
         1
         1
         1
         1
         1
         1
         1
         1
         1
         1
         1
         1
         1
         1
         1
         1
         1
         1
         1
         1
         1
         1
         1
         1
         1
         1
         1
         1
         1
         1
         1
         1
         1
         1
         1
         1
         1
         1
         1
         1
         1
         1
         1
         1
         1
         1
         1
         1
         1
         1
         1
         1
         1
         1
         1
         1
         1
         1
         1
         1
         1
         1
         1
         1
         1
         1
         1
         1
         1
         1
         1
         1
         1
         1
         1
         1
         1
         1
         1
         1
         1
         1
         1
         1
         1
         1
         1
         1
         1
         1
         1
         1
         1
         1
         1
         1
         1
         1
         1
         1
         1
         1
         1
         1
         1
         1
         1
         1
         1
         1
         1
         1
         1
         1
         1
         1
         1
         1
         1
         1
         1
         1
         1
         1
         1
         1
         1
         1
         1
         1
         1
         1
         1
         1
         1
         1
         1
         1
         1
         1
         1
         1
         1
         1
         1
         1
         1
         1
         1
         1
         1
         1
         1
         1
         1
         1
         1
         1
         1
         1
         1
         1
         1
         1
         1
         1
         1
         1
         1
         1
         1
         1
         1
         1
         1
         1
         1
         1
         1
         1
         1
         1
         1
         1
         1
         1
         1
         1
         1
         1
         1
         1
         1
         1
         1
         1
         1
         1
         1
         1
         1
         1
         1
         1
         1
         1
         1
         1
         1
         1
         1
         1
         1
         1
         1
         1
         1
         1
         1
         1
         1
         1
         1
         1
         1
         1
         1
         1
         1
         1
         1
         1
         1
         1
         1
         1
         1
         1
         1
         1
         1
         1
         1
         1
         1
         1
         1
         1
         1
         1
         1
         1
         1
         1
         1
         1
         1
         1
         1
         1
         1
         1
         1
         1
         1
         1
         1
         1
         1
         1
         1
         1
         1
         1
         1
         1
         1
         1
         1
         1
         1
         1
         1
         1
         1
         1
         1
         1
         1
         1
         1
         1
         1
         1
         1
         1
         1
         1
         1
         1
         1
         1
         1
         1
         1
         1
         1
         1
         1
         1
         1
         1
         1
         1
         1
         1
         1
         1
         1
         1
         1
         1
         1
         1
         1
         1
         1
         1
         1
         1
         1
         1
         1
         1
         1
         1
         1
         1
         1
         1
         1
         1
         1
         1
         1
         1
         1
         1
         1
         1
         1
         1
         1
         1
         1
         1
         1
         1
         1
         1
         1
         1
         1
         1
         1
         1
         1
         1
         1
         1
         1
         1
         1
         1
         1
         1
         1
         1
         1
         1
         1
         1
         1
         1
         1
         1
         1
         1
         1
         1
         1
         1
         1
         1
         1
         1
         1
         1
         1
         1
         1
         1
         1
         1
         1
         1
         1
         1
         1
         1
         1
         1
         1
         1
         1
         1
         1
         1
         1
         1
         1
         1
         1
         1
         1
         1
         1
         1
         1
         1
         1
         1
         1
         1
         1
         1
         1
         1
         1
         1
         1
         1
         1
         1
         1
         1
         1
         1
         1
         1
         1
         1
         1
         1
         1
         1
         1
         1
         1
         1
         1
         1
         1
         1
         1
         1
         1
         1
         1
         1
         1
         1
         1
         1
         1
         1
         1
         1
         1
         1
         1
         1
         1
         1
         1
         1
         1
         1
         1
         1
         1
         1
         1
         1
         1
         1
         1
         1
         1
         1
         1
         1
         1
         1
         1
         1
         1
         1
         1
         1
         1
         1
         1
         1
         1
         1
         1
         1
         1
         1
         1
         1
         1
         1
         1
         1
         1
         1
         1
         1
         1
         1
         1
         1
         1
         1
         1
         1
         1
         1
         1
         1
         1
         1
         1
         1
         1
         1
         1
         1
         1
         1
         1
         1
         1
         1
         1
         1
         1
         1
         1
         1
         1
         1
         1
         1
         1
         1
         1
         1
         1
         1
         1
         1
         1
         1
         1
         1
         1
         1
         1
         1
         1
         1
         1
         1
         1
         1
         1
         1
         1
         1
         1
         1
         1
         1
         1
         1
         1
         1
         1
         1
         1
         1
         1
         1
         1
         1
         1
         1
         1
         1
         1
         1
         1
         1
         1
         1
         1
         1
         1
         1
         1
         1
         1
         1
         1
         1
         1
         1
         1
         1
         1
         1
         1
         1
         1
         1
         1
         1
         1
         1
         1
         1
         1
         1
         1
         1
         1
         1
         1
         1
         1
         1
         1
         1
         1
         1
         1
         1
         1
         1
         1
         1
         1
         1
         1
         1
         1
         1
         1
         1
         1
         1
         1
         1
         1
         1
         1
         1
         1
         1
         1
         1
         1
         1
         1
         1
         1
         1
         1
         1
         1
         1
         1
         1
         1
         1
         1
         1
         1
         1
         1
         1
         1
         1
         1
         1
         1
         1
         1
         1
         1
         1
         1
         1
         1
         1
         1
         1
         1
         1
         1
         1
         1
         1
         1
         1
         1
         1
         1
         1
         1
         1
         1
         1
         1
         1
         1
         1
         1
         1
         1
         1
         1
         1
         1
         1
         1
         1
         1
         1
         1
         1
         1
         1
         1
         1
         1
         1
         1
         1
         1
         1
         1
         1
         1
         1
         1
         1
         1
         1
         1
         1
         1
         1
         1
         1
         1
         1
         1
         1
         1
         1
         1
         1
         1
         1
         1
         1
         1
         1
         1
         1
         1
         1
         1
         1
         1
         1
         1
         1
         1
         1
         1
         1
         1
         1
         1
         1
         1
         1
         1
         1
         1
         1
         1
         1
         1
         1
         1
         1
         1
         1
         1
         1
         1
         1
         1
         1
         1
         1
         1
         1
         1
         1
         1
         1
         1
         1
         1
         1
         1
         1
         1
         1
         1
         1
         1
         1
         1
         1
         1
         1
         1
         1
         1
         1
         1
         1
         1
         1
         1
         1
         1
         1
         1
         1
         1
         1
         1
         1
         1
         1
         1
         1
         1
         1
         1
         1
         1
         1
         1
         1
         1
         1
         1
         1
         1
         1
         1
         1
         1
         1
         1
         1
         1
         1
         1
         1
         1
         1
         1
         1
         1
         1
         1
         1
         1
         1
         1
         1
         1
         1
         1
         1
         1
         1
         1
         1
         1
         1
         1
         1
         1
         1
         1
         1
         1
         1
         1
         1
         1
         1
         1
         1
         1
         1
         1
         1
         1
         1
         1
         1
         1
         1
         1
         1
         1
         1
         1
         1
         1
         1
         1
         1
         1
         1
         1
         1
         1
         1
         1
         1
         1
         1
         1
         1
         1
         1
         1
         1
         1
         1
         1
         1
         1
         1
         1
         1
         1
         1
         1
         1
         1
         1
         1
         1
         1
         1
         1
         1
         1
         1
         1
         1
         1
         1
         1
         1
         1
         1
         1
         1
         1
         1
         1
         1
         1
         1
         1
         1
         1
         1
         1
         1
         1
         1
         1
         1
         1
         1
         1
         1
         1
         1
         1
         1
         1
         1
         1
         1
         1
         1
         1
         1
         1
         1
         1
         1
         1
         1
         1
         1
         1
         1
         1
         1
         1
         1
         1
         1
         1
         1
         1
         1
         1
         1
         1
         1
         1
         1
         1
         1
         1
         1
         1
         1
         1
         1
         1
         1
         1
         1
         1
         1
         1
         1
         1
         1
         1
         1
         1
         1
         1
         1
         1
         1
         1
         1
         1
         1
         1
         1
         1
         1
         1
         1
         1
         1
         1
         1
         1
         1
         1
         1
         1
         1
         1
         1
         1
         1
         1
         1
         1
         1
         1
         1
         1
         1
         1
         1
         1
         1
         1
         1
         1
         1
         1
         1
         1
         1
         1
         1
         1
         1
         1
         1
         1
         1
         1
         1
         1
         1
         1
         1
         1
         1
         1
         1
         1
         1
         1
         1
         1
         1
         1
         1
         1
         1
         1
         1
         1
         1
         1
         1
         1
         1
         1
         1
         1
         1
         1
         1
         1
         1
         1
         1
         1
         1
         1
         1
         1
         1
         1
         1
         1
         1
         1
         1
         1
         1
         1
         1
         1
         1
         1
         1
         1
         1
         1
         1
         1
         1
         1
         1
         1
         1
         1
         1
         1
         1
         1
         1
         1
         1
         1
         1
         1
         1
         1
         1
         1
         1
         1
         1
         1
         1
         1
         1
         1
         1
         1
         1
         1
         1
         1
         1
         1
         1
         1
         1
         1
         1
         1
         1
         1
         1
         1
         1
         1
         1
         1
         1
         1
         1
         1
         1
         1
         1
         1
         1
         1
         1
         1
         1
         1
         1
         1
         1
         1
         1
         1
         1
         1
         1
         1
         1
         1
         1
         1
         1
         1
         1
         1
         1
         1
         1
         1
         1
         1
         1
         1
         1
         1
         1
         1
         1
         1
         1
         1
         1
         1
         1
         1
         1
         1
         1
         1
         1
         1
         1
         1
         1
         1
         1
         1
         1
         1
         1
         1
         1
         1
         1
         1
         1
         1
         1
         1
         1
         1
         1
         1
         1
         1
         1
         1
         1
         1
         1
         1
         1
         1
         1
         1
         1
         1
         1
         1
         1
         1
         1
         1
         1
         1
         1
         1
         1
         1
         1
         1
         1
         1
         1
         1
         1
         1
         1
         1
         1
         1
         1
         1
         1
         1
         1
         1
         1
         1
         1
         1
         1
         1
         1
         1
         1
         1
         1
         1
         1
         1
         1
         1
         1
         1
         1
         1
         1
         1
         1
         1
         1
         1
         1
         1
         1
         1
         1
         1
         1
         1
         1
         1
         1
         1
         1
         1
         1
         1
         1
         1
         1
         1
         1
         1
         1
         1
         1
         1
         1
         1
         1
         1
         1
         1
         1
         1
         1
         1
         1
         1
         1
         1
         1
         1
         1
         1
         1
         1
         1
         1
         1
         1
         1
         1
         1
         1
         1
         1
         1
         1
         1
         1
         1
         1
         1
         1
         1
         1
         1
         1
         1
         1
         1
         1
         1
         1
         1
         1
         1
         1
         1
         1
         1
         1
         1
         1
         1
         1
         1
         1
         1
         1
         1
         1
         1
         1
         1
         1
         1
         1
         1
         1
         1
         1
         1
         1
         1
         1
         1
         1
         1
         1
         1
         1
         1
         1
         1
         1
         1
         1
         1
         1
         1
         1
         1
         1
         1
         1
         1
         1
         1
         1
         1
         1
         1
         1
         1
         1
         1
         1
         1
         1
         1
         1
         1
         1
         1
         1
         1
         1
         1
         1
         1
         1
         1
         1
         1
         1
         1
         1
         1
         1
         1
         1
         1
         1
         1
         1
         1
         1
         1
         1
         1
         1
         1
         1
         1
         1
         1
         1
         1
         1
         1
         1
         1
         1
         1
         1
         1
         1
         1
         1
         1
         1
         1
         1
         1
         1
         1
         1
         1
         1
         1
         1
         1
         1
         1
         1
         1
         1
         1
         1
         1
         1
         1
         1
         1
         1
         1
         1
         1
         1
         1
         1
         1
         1
         1
         1
         1
         1
         1
         1
         1
         1
         1
         1
         1
         1
         1
         1
         1
         1
         1
         1
         1
         1
         1
         1
         1
         1
         1
         1
         1
         1
         1
         1
         1
         1
         1
         1
         1
         1
         1
         1
         1
         1
         1
         1
         1
         1
         1
         1
         1
         1
         1
         1
         1
         1
         1
         1
         1
         1
         1
         1
         1
         1
         1
         1
         1
         1
         1
         1
         1
         1
         1
         1
         1
         1
         1
         1
         1
         1
         1
         1
         1
         1
         1
         1
         1
         1
         1
         1
         1
         1
         1
         1
         1
         1
         1
         1
         1
         1
         1
         1
         1
         1
         1
         1
         1
         1
         1
         1
         1
         1
         1
         1
         1
         1
         1
         1
         1
         1
         1
         1
         1
         1
         1
         1
         1
         1
         1
         1
         1
         1
         1
         1
         1
         1
         1
         1
         1
         1
         1
         1
         1
         1
         1
         1
         1
         1
         1
         1
         1
         1
         1
         1
         1
         1
         1
         1
         1
         1
         1
         1
         1
         1
         1
         1
         1
         1
         1
         1
         1
         1
         1
         1
         1
         1
         1
         1
         1
         1
         1
         1
         1
         1
         1
         1
         1
         1
         1
         1
         1
         1
         1
         1
         1
         1
         1
         1
         1
         1
         1
         1
         1
         1
         1
         1
         1
         1
         1
         1
         1
         1
         1
         1
         1
         1
         1
         1
         1
         1
         1
         1
         1
         1
         1
         1
         1
         1
         1
         1
         1
         1
         1
         1
         1
         1
         1
         1
         1
         1
         1
         1
         1
         1
         1
         1
         1
         1
         1
         1
         1
         1
         1
         1
         1
         1
         1
         1
         1
         1
         1
         1
         1
         1
         1
         1
         1
         1
         1
         1
         1
         1
         1
         1
         1
         1
         1
         1
         1
         1
         1
         1
         1
         1
         1
         1
         1
         1
         1
         1
         1
         1
         1
         1
         1
         1
         1
         1
         1
         1
         1
         1
         1
         1
         1
         1
         1
         1
         1
         1
         1
         1
         1
         1
         1
         1
         1
         1
         1
         1
         1
         1
         1
         1
         1
         1
         1
         1
         1
         1
         1
         1
         1
         1
         1
         1
         1
         1
         1
         1
         1
         1
         1
         1
         1
         1
         1
         1
         1
         1
         1
         1
         1
         1
         1
         1
         1
         1
         1
         1
         1
         1
         1
         1
         1
         1
         1
         1
         1
         1
         1
         1
         1
         1
         1
         1
         1
         1
         1
         1
         1
         1
         1
         1
         1
         1
         1
         1
         1
         1
         1
         1
         1
         1
         1
         1
         1
         1
         1
         1
         1
         1
         1
         1
         1
         1
         1
         1
         1
         1
         1
         1
         1
         1
         1
         1
         1
         1
         1
         1
         1
         1
         1
         1
         1
         1
         1
         1
         1
         1
         1
         1
         1
         1
         1
         1
         1
         1
         1
         1
         1
         1
         1
         1
         1
         1
         1
         1
         1
         1
         1
         1
         1
         1
         1
         1
         1
         1
         1
         1
         1
         1
         1
         1
         1
         1
         1
         1
         1
         1
         1
         1
         1
         1
         1
         1
         1
         1
         1
         1
         1
         1
         1
         1
         1
         1
         1
         1
         1
         1
         1
         1
         1
         1
         1
         1
         1
         1
         1
         1
         1
         1
         1
         1
         1
         1
         1
         1
         1
         1
         1
         1
         1
         1
         1
         1
         1
         1
         1
         1
         1
         1
         1
         1
         1
         1
         1
         1
         1
         1
         1
         1
         1
         1
         1
         1
         1
         1
         1
         1
         1
         1
         1
         1
         1
         1
         1
         1
         1
         1
         1
         1
         1
         1
         1
         1
         1
         1
         1
         1
         1
         1
         1
         1
         1
         1
         1
         1
         1
         1
         1
         1
         1
         1
         1
         1
         1
         1
         1
         1
         1
         1
         1
         1
         1
         1
         1
         1
         1
         1
         1
         1
         1
         1
         1
         1
         1
         1
         1
         1
         1
         1
         1
         1
         1
         1
         1
         1
         1
         1
         1
         1
         1
         1
         1
         1
         1
         1
         1
         1
         1
         1
         1
         1
         1
         1
         1
         1
         1
         1
         1
         1
         1
         1
         1
         1
         1
         1
         1
         1
         1
         1
         1
         1
         1
         1
         1
         1
         1
         1
         1
         1
         1
         1
         1
         1
         1
         1
         1
         1
         1
         1
         1
         1
         1
         1
         1
         1
         1
         1
         1
         1
         1
         1
         1
         1
         1
         1
         1
         1
         1
         1
         1
         1
         1
         1
         1
         1
         1
         1
         1
         1
         1
         1
         1
         1
         1
         1
         1
         1
         1
         1
         1
         1
         1
         1
         1
         1
         1
         1
         1
         1
         1
         1
         1
         1
         1
         1
         1
         1
         1
         1
         1
         1
         1
         1
         1
         1
         1
         1
         1
         1
         1
         1
         1
         1
         1
         1
         1
         1
         1
         1
         1
         1
         1
         1
         1
         1
         1
         1
         1
         1
         1
         1
         1
         1
         1
         1
         1
         1
         1
         1
         1
         1
         1
         1
         1
         1
         1
         1
         1
         1
         1
         1
         1
         1
         1
         1
         1
         1
         1
         1
         1
         1
         1
         1
         1
         1
         1
         1
         1
         1
         1
         1
         1
         1
         1
         1
         1
         1
         1
         1
         1
         1
         1
         1
         1
         1
         1
         1
         1
         1
         1
         1
         1
         1
         1
         1
         1
         1
         1
         1
         1
         1
         1
         1
         1
         1
         1
         1
         1
         1
         1
         1
         1
         1
         1
         1
         1
         1
         1
         1
         1
         1
         1
         1
         1
         1
         1
         1
         1
         1
         1
         1
         1
         1
         1
         1
         1
         1
         1
         1
         1
         1
         1
         1
         1
         1
         1
         1
         1
         1
         1
         1
         1
         1
         1
         1
         1
         1
         1
         1
         1
         1
         1
         1
         1
         1
         1
         1
         1
         1
         1
         1
         1
         1
         1
         1
         1
         1
         1
         1
         1
         1
         1
         1
         1
         1
         1
         1
         1
         1
         1
         1
         1
         1
         1
         1
         1
         1
         1
         1
         1
         1
         1
         1
         1
         1
         1
         1
         1
         1
         1
         1
         1
         1
         1
         1
         1
         1
         1
         1
         1
         1
         1
         1
         1
         1
         1
         1
         1
         1
         1
         1
         1
         1
         1
         1
         1
         1
         1
         1
         1
         1
         1
         1
         1
         1
         1
         1
         1
         1
         1
         1
         1
         1
         1
         1
         1
         1
         1
         1
         1
         1
         1
         1
         1
         1
         1
         1
         1
         1
         1
         1
         1
         1
         1
         1
         1
         1
         1
         1
         1
         1
         1
         1
         1
         1
         1
         1
         1
         1
         1
         1
         1
         1
         1
         1
         1
         1
         1
         1
         1
         1
         1
         1
         1
         1
         1
         1
         1
         1
         1
         1
         1
         1
         1
         1
         1
         1
         1
         1
         1
         1
         1
         1
         1
         1
         1
         1
         1
         1
         1
         1
         1
         1
         1
         1
         1
         1
         1
         1
         1
         1
         1
         1
         1
         1
         1
         1
         1
         1
         1
         1
         1
         1
         1
         1
         1
         1
         1
         1
         1
         1
         1
         1
         1
         1
         1
         1
         1
         1
         1
         1
         1
         1
         1
         1
         1
         1
         1
         1
         1
         1
         1
         1
         1
         1
         1
         1
         1
         1
         1
         1
         1
         1
         1
         1
         1
         1
         1
         1
         1
         1
         1
         1
         1
         1
         1
         1
         1
         1
         1
         1
         1
         1
         1
         1
         1
         1
         1
         1
         1
         1
         1
         1
         1
         1
         1
         1
         1
         1
         1
         1
         1
         1
         1
         1
         1
         1
         1
         1
         1
         1
         1
         1
         1
         1
         1
         1
         1
         1
         1
         1
         1
         1
         1
         1
         1
         1
         1
         1
         1
         1
         1
         1
         1
         1
         1
         1
         1
         1
         1
         1
         1
         1
         1
         1
         1
         1
         1
         1
         1
         1
         1
         1
         1
         1
         1
         1
         1
         1
         1
         1
         1
         1
         1
         1
         1
         1
         1
         1
         1
         1
         1
         1
         1
         1
         1
         1
         1
         1
         1
         1
         1
         1
         1
         1
         1
         1
         1
         1
         1
         1
         1
         1
         1
         1
         1
         1
         1
         1
         1
         1
         1
         1
         1
         1
         1
         1
         1
         1
         1
         1
         1
         1
         1
         1
         1
         1
         1
         1
         1
         1
         1
         1
         1
         1
         1
         1
         1
         1
         1
         1
         1
         1
         1
         1
         1
         1
         1
         1
         1
         1
         1
         1
         1
         1
         1
         1
         1
         1
         1
         1
         1
         1
         1
         1
         1
         1
         1
         1
         1
         1
         1
         1
         1
         1
         1
         1
         1
         1
         1
         1
         1
         1
         1
         1
         1
         1
         1
         1
         1
         1
         1
         1
         1
         1
         1
         1
         1
         1
         1
         1
         1
         1
         1
         1
         1
         1
         1
         1
         1
         1
         1
         1
         1
         1
         1
         1
         1
         1
         1
         1
         1
         1
         1
         1
         1
         1
         1
         1
         1
         1
         1
         1
         1
         1
         1
         1
         1
         1
         1
         1
         1
         1
         1
         1
         1
         1
         1
         1
         1
         1
         1
         1
         1
         1
         1
         1
         1
         1
         1
         1
         1
         1
         1
         1
         1
         1
         1
         1
         1
         1
         1
         1
         1
         1
         1
         1
         1
         1
         1
         1
         1
         1
         1
         1
         1
         1
         1
         1
         1
         1
         1
         1
         1
         1
         1
         1
         1
         1
         1
         1
         1
         1
         1
         1
         1
         1
         1
         1
         1
         1
         1
         1
         1
         1
         1
         1
         1
         1
         1
         1
         1
         1
         1
         1
         1
         1
         1
         1
         1
         1
         1
         1
         1
         1
         1
         1
         1
         1
         1
         1
         1
         1
         1
         1
         1
         1
         1
         1
         1
         1
         1
         1
         1
         1
         1
         1
         1
         1
         1
         1
         1
         1
         1
         1
         1
         1
         1
         1
         1
         1
         1
         1
         1
         1
         1
         1
         1
         1
         1
         1
         1
         1
         1
         1
         1
         1
         1
         1
         1
         1
         1
         1
         1
         1
         1
         1
         1
         1
         1
         1
         1
         1
         1
         1
         1
         1
         1
         1
         1
         1
         1
         1
         1
         1
         1
         1
         1
         1
         1
         1
         1
         1
         1
         1
         1
         1
         1
         1
         1
         1
         1
         1
         1
         1
         1
         1
         1
         1
         1
         1
         1
         1
         1
         1
         1
         1
         1
         1
         1
         1
         1
         1
         1
         1
         1
         1
         1
         1
         1
         1
         1
         1
         1
         1
         1
         1
         1
         1
         1
         1
         1
         1
         1
         1
         1
         1
         1
         1
         1
         1
         1
         1
         1
         1
         1
         1
         1
         1
         1
         1
         1
         1
         1
         1
         1
         1
         1
         1
         1
         1
         1
         1
         1
         1
         1
         1
         1
         1
         1
         1
         1
         1
         1
         1
         1
         1
         1
         1
         1
         1
         1
         1
         1
         1
         1
         1
         1
         1
         1
         1
         1
         1
         1
         1
         1
         1
         1
         1
         1
         1
         1
         1
         1
         1
         1
         1
         1
         1
         1
         1
         1
         1
         1
         1
         1
         1
         1
         1
         1
         1
         1
         1
         1
         1
         1
         1
         1
         1
         1
         1
         1
         1
         1
         1
         1
         1
         1
         1
         1
         1
         1
         1
         1
         1
         1
         1
         1
         1
         1
         1
         1
         1
         1
         1
         1
         1
         1
         1
         1
         1
         1
         1
         1
         1
         1
         1
         1
         1
         1
         1
         1
         1
         1
         1
         1
         1
         1
         1
         1
         1
         1
         1
         1
         1
         1
         1
         1
         1
         1
         1
         1
         1
         1
         1
         1
         1
         1
         1
         1
         1
         1
         1
         1
         1
         1
         1
         1
         1
         1
         1
         1
         1
         1
         1
         1
         1
         1
         1
         1
         1
         1
         1
         1
         1
         1
         1
         1
         1
         1
         1
         1
         1
         1
         1
         1
         1
         1
         1
         1
         1
         1
         1
         1
         1
         1
         1
         1
         1
         1
         1
         1
         1
         1
         1
         1
         1
         1
         1
         1
         1
         1
         1
         1
         1
         1
         1
         1
         1
         1
         1
         1
         1
         1
         1
         1
         1
         1
         1
         1
         1
         1
         1
         1
         1
         1
         1
         1
         1
         1
         1
         1
         1
         1
         1
         1
         1
         1
         1
         1
         1
         1
         1
         1
         1
         1
         1
         1
         1
         1
         1
         1
         1
         1
         1
         1
         1
         1
         1
         1
         1
         1
         1
         1
         1
         1
         1
         1
         1
         1
         1
         1
         1
         1
         1
         1
         1
         1
         1
         1
         1
         1
         1
         1
         1
         1
         1
         1
         1
         1
         1
         1
         1
         1
         1
         1
         1
         1
         1
         1
         1
         1
         1
         1
         1
         1
         1
         1
         1
         1
         1
         1
         1
         1
         1
         1
         1
         1
         1
         1
         1
         1
         1
         1
         1
         1
         1
         1
         1
         1
         1
         1
         1
         1
         1
         1
         1
         1
         1
         1
         1
         1
         1
         1
         1
         1
         1
         1
         1
         1
         1
         1
         1
         1
         1
         1
         1
         1
         1
         1
         1
         1
         1
         1
         1
         1
         1
         1
         1
         1
         1
         1
         1
         1
         1
         1
         1
         1
         1
         1
         1
         1
         1
         1
         1
         1
         1
         1
         1
         1
         1
         1
         1
         1
         1
         1
         1
         1
         1
         1
         1
         1
         1
         1
         1
         1
         1
         1
         1
         1
         1
         1
         1
         1
         1
         1
         1
         1
         1
         1
         1
         1
         1
         1
         1
         1
         1
         1
         1
         1
         1
         1
         1
         1
         1
         1
         1
         1
         1
         1
         1
         1
         1
         1
         1
         1
         1
         1
         1
         1
         1
         1
         1
         1
         1
         1
         1
         1
         1
         1
         1
         1
         1
         1
         1
         1
         1
         1
         1
         1
         1
         1
         1
         1
         1
         1
         1
         1
         1
         1
         1
         1
         1
         1
         1
         1
         1
         1
         1
         1
         1
         1
         1
         1
         1
         1
         1
         1
         1
         1
         1
         1
         1
         1
         1
         1
         1
         1
         1
         1
         1
         1
         1
         1
         1
         1
         1
         1
         1
         1
         1
         1
         1
         1
         1
         1
         1
         1
         1
         1
         1
         1
         1
         1
         1
         1
         1
         1
         1
         1
         1
         1
         1
         1
         1
         1
         1
         1
         1
         1
         1
         1
         1
         1
         1
         1
         1
         1
         1
         1
         1
         1
         1
         1
         1
         1
         1
         1
         1
         1
         1
         1
         1
         1
         1
         1
         1
         1
         1
         1
         1
         1
         1
         1
         1
         1
         1
         1
         1
         1
         1
         1
         1
         1
         1
         1
         1
         1
         1
         1
         1
         1
         1
         1
         1
         1
         1
         1
         1
         1
         1
         1
         1
         1
         1
         1
         1
         1
         1
         1
         1
         1
         1
         1
         1
         1
         1
         1
         1
         1
         1
         1
         1
         1
         1
         1
         1
         1
         1
         1
         1
         1
         1
         1
         1
         1
         1
         1
         1
         1
         1
         1
         1
         1
         1
         1
         1
         1
         1
         1
         1
         1
         1
         1
         1
         1
         1
         1
         1
         1
         1
         1
         1
         1
         1
         1
         1
         1
         1
         1
         1
         1
         1
         1
         1
         1
         1
         1
         1
         1
         1
         1
         1
         1
         1
         1
         1
         1
         1
         1
         1
         1
         1
         1
         1
         1
         1
         1
         1
         1
         1
         1
         1
         1
         1
         1
         1
         1
         1
         1
         1
         1
         1
         1
         1
         1
         1
         1
         1
         1
         1
         1
         1
         1
         1
         1
         1
         1
         1
         1
         1
         1
         1
         1
         1
         1
         1
         1
         1
         1
         1
         1
         1
         1
         1
         1
         1
         1
         1
         1
         1
         1
         1
         1
         1
         1
         1
         1
         1
         1
         1
         1
         1
         1
         1
         1
         1
         1
         1
         1
         1
         1
         1
         1
         1
         1
         1
         1
         1
         1
         1
         1
         1
         1
         1
         1
         1
         1
         1
         1
         1
         1
         1
         1
         1
         1
         1
         1
         1
         1
         1
         1
         1
         1
         1
         1
         1
         1
         1
         1
         1
         1
         1
         1
         1
         1
         1
         1
         1
         1
         1
         1
         1
         1
         1
         1
         1
         1
         1
         1
         1
         1
         1
         1
         1
         1
         1
         1
         1
         1
         1
         1
         1
         1
         1
         1
         1
         1
         1
         1
         1
         1
         1
         1
         1
         1
         1
         1
         1
         1
         1
         1
         1
         1
         1
         1
         1
         1
         1
         1
         1
         1
         1
         1
         1
         1
         1
         1
         1
         1
         1
         1
         1
         1
         1
         1
         1
         1
         1
         1
         1
         1
         1
         1
         1
         1
         1
         1
         1
         1
         1
         1
         1
         1
         1
         1
         1
         1
         1
         1
         1
         1
         1
         1
         1
         1
         1
         1
         1
         1
         1
         1
         1
         1
         1
         1
         1
         1
         1
         1
         1
         1
         1
         1
         1
         1
         1
         1
         1
         1
         1
         1
         1
         1
         1
         1
         1
         1
         1
         1
         1
         1
         1
         1
         1
         1
         1
         1
         1
         1
         1
         1
         1
         1
         1
         1
         1
         1
         1
         1
         1
         1
         1
         1
         1
         1
         1
         1
         1
         1
         1
         1
         1
         1
         1
         1
         1
         1
         1
         1
         1
         1
         1
         1
         1
         1
         1
         1
         1
         1
         1
         1
         1
         1
         1
         1
         1
         1
         1
         1
         1
         1
         1
         1
         1
         1
         1
         1
         1
         1
         1
         1
         1
         1
         1
         1
         1
         1
         1
         1
         1
         1
         1
         1
         1
         1
         1
         1
         1
         1
         1
         1
         1
         1
         1
         1
         1
         1
         1
         1
         1
         1
         1
         1
         1
         1
         1
         1
         1
         1
         1
         1
         1
         1
         1
         1
         1
         1
         1
         1
         1
         1
         1
         1
         1
         1
         1
         1
         1
         1
         1
         1
         1
         1
         1
         1
         1
         1
         1
         1
         1
         1
         1
         1
         1
         1
         1
         1
         1
         1
         1
         1
         1
         1
         1
         1
         1
         1
         1
         1
         1
         1
         1
         1
         1
         1
         1
         1
         1
         1
         1
         1
         1
         1
         1
         1
         1
         1
         1
         1
         1
         1
         1
         1
         1
         1
         1
         1
         1
         1
         1
         1
         1
         1
         1
         1
         1
         1
         1
         1
         1
         1
         1
         1
         1
         1
         1
         1
         1
         1
         1
         1
         1
         1
         1
         1
         1
         1
         1
         1
         1
         1
         1
         1
         1
         1
         1
         1
         1
         1
         1
         1
         1
         1
         1
         1
         1
         1
         1
         1
         1
         1
         1
         1
         1
         1
         1
         1
         1
         1
         1
         1
         1
         1
         1
         1
         1
         1
         1
         1
         1
         1
         1
         1
         1
         1
         1
         1
         1
         1
         1
         1
         1
         1
         1
         1
         1
         1
         1
         1
         1
         1
         1
         1
         1
         1
         1
         1
         1
         1
         1
         1
         1
         1
         1
         1
         1
         1
         1
         1
         1
         1
         1
         1
         1
         1
         1
         1
         1
         1
         1
         1
         1
         1
         1
         1
         1
         1
         1
         1
         1
         1
         1
         1
         1
         1
         1
         1
         1
         1
         1
         1
         1
         1
         1
         1
         1
         1
         1
         1
         1
         1
         1
         1
         1
         1
         1
         1
         1
         1
         1
         1
         1
         1
         1
         1
         1
         1
         1
         1
         1
         1
         1
         1
         1
         1
         1
         1
         1
         1
         1
         1
         1
         1
         1
         1
         1
         1
         1
         1
         1
         1
         1
         1
         1
         1
         1
         1
         1
         1
         1
         1
         1
         1
         1
         1
         1
         1
         1
         1
         1
         1
         1
         1
         1
         1
         1
         1
         1
         1
         1
         1
         1
         1
         1
         1
         1
         1
         1
         1
         1
         1
         1
         1
         1
         1
         1
         1
         1
         1
         1
         1
         1
         1
         1
         1
         1
         1
         1
         1
         1
         1
         1
         1
         1
         1
         1
         1
         1
         1
         1
         1
         1
         1
         1
         1
         1
         1
         1
         1
         1
         1
         1
         1
         1
         1
         1
         1
         1
         1
         1
         1
         1
         1
         1
         1
         1
         1
         1
         1
         1
         1
         1
         1
         1
         1
         1
         1
         1
         1
         1
         1
         1
         1
         1
         1
         1
         1
         1
         1
         1
         1
         1
         1
         1
         1
         1
         1
         1
         1
         1
         1
         1
         1
         1
         1
         1
         1
         1
         1
         1
         1
         1
         1
         1
         1
         1
         1
         1
         1
         1
         1
         1
         1
         1
         1
         1
         1
         1
         1
         1
         1
         1
         1
         1
         1
         1
         1
         1
         1
         1
         1
         1
         1
         1
         1
         1
         1
         1
         1
         1
         1
         1
         1
         1
         1
         1
         1
         1
         1
         1
         1
         1
         1
         1
         1
         1
         1
         1
         1
         1
         1
         1
         1
         1
         1
         1
         1
         1
         1
         1
         1
         1
         1
         1
         1
         1
         1
         1
         1
         1
         1
         1
         1
         1
         1
         1
         1
         1
         1
         1
         1
         1
         1
         1
         1
         1
         1
         1
         1
         1
         1
         1
         1
         1
         1
         1
         1
         1
         1
         1
         1
         1
         1
         1
         1
         1
         1
         1
         1
         1
         1
         1
         1
         1
         1
         1
         1
         1
         1
         1
         1
         1
         1
         1
         1
         1
         1
         1
         1
         1
         1
         1
         1
         1
         1
         1
         1
         1
         1
         1
         1
         1
         1
         1
         1
         1
         1
         1
         1
         1
         1
         1
         1
         1
         1
         1
         1
         1
         1
         1
         1
         1
         1
         1
         1
         1
         1
         1
         1
         1
         1
         1
         1
         1
         1
         1
         1
         1
         1
         1
         1
         1
         1
         1
         1
         1
         1
         1
         1
         1
         1
         1
         1
         1
         1
         1
         1
         1
         1
         1
         1
         1
         1
         1
         1
         1
         1
         1
         1
         1
         1
         1
         1
         1
         1
         1
         1
         1
         1
         1
         1
         1
         1
         1
         1
         1
         1
         1
         1
         1
         1
         1
         1
         1
         1
         1
         1
         1
         1
         1
         1
         1
         1
         1
         1
         1
         1
         1
         1
         1
         1
         1
         1
         1
         1
         1
         1
         1
         1
         1
         1
         1
         1
         1
         1
         1
         1
         1
         1
         1
         1
         1
         1
         1
         1
         1
         1
         1
         1
         1
         1
         1
         1
         1
         1
         1
         1
         1
         1
         1
         1
         1
         1
         1
         1
         1
         1
         1
         1
         1
         1
         1
         1
         1
         1
         1
         1
         1
         1
         1
         1
         1
         1
         1
         1
         1
         1
         1
         1
         1
         1
         1
         1
         1
         1
         1
         1
         1
         1
         1
         1
         1
         1
         1
         1
         1
         1
         1
         1
         1
         1
         1
         1
         1
         1
         1
         1
         1
         1
         1
         1
         1
         1
         1
         1
         1
         1
         1
         1
         1
         1
         1
         1
         1
         1
         1
         1
         1
         1
         1
         1
         1
         1
         1
         1
         1
         1
         1
         1
         1
         1
         1
         1
         1
         1
         1
         1
         1
         1
         1
         1
         1
         1
         1
         1
         1
         1
         1
         1
         1
         1
         1
         1
         1
         1
         1
         1
         1
         1
         1
         1
         1
         1
         1
         1
         1
         1
         1
         1
         1
         1
         1
         1
         1
         1
         1
         1
         1
         1
         1
         1
         1
         1
         1
         1
         1
         1
         1
         1
         1
         1
         1
         1
         1
         1
         1
         1
         1
         1
         1
         1
         1
         1
         1
         1
         1
         1
         1
         1
         1
         1
         1
         1
         1
         1
         1
         1
         1
         1
         1
         1
         1
         1
         1
         1
         1
         1
         1
         1
         1
         1
         1
         1
         1
         1
         1
         1
         1
         1
         1
         1
         1
         1
         1
         1
         1
         1
         1
         1
         1
         1
         1
         1
         1
         1
         1
         1
         1
         1
         1
         1
         1
         1
         1
         1
         1
         1
         1
         1
         1
         1
         1
         1
         1
         1
         1
         1
         1
         1
         1
         1
         1
         1
         1
         1
         1
         1
         1
         1
         1
         1
         1
         1
         1
         1
         1
         1
         1
         1
         1
         1
         1
         1
         1
         1
         1
         1
         1
         1
         1
         1
         1
         1
         1
         1
         1
         1
         1
         1
         1
         1
         1
         1
         1
         1
         1
         1
         1
         1
         1
         1
         1
         1
         1
         1
         1
         1
         1
         1
         1
         1
         1
         1
         1
         1
         1
         1
         1
         1
         1
         1
         1
         1
         1
         1
         1
         1
         1
         1
         1
         1
         1
         1
         1
         1
         1
         1
         1
         1
         1
         1
         1
         1
         1
         1
         1
         1
         1
         1
         1
         1
         1
         1
         1
         1
         1
         1
         1
         1
         1
         1
         1
         1
         1
         1
         1
         1
         1
         1
         1
         1
         1
         1
         1
         1
         1
         1
         1
         1
         1
         1
         1
         1
         1
         1
         1
         1
         1
         1
         1
         1
         1
         1
         1
         1
         1
         1
         1
         1
         1
         1
         1
         1
         1
         1
         1
         1
         1
         1
         1
         1
         1
         1
         1
         1
         1
         1
         1
         1
         1
         1
         1
         1
         1
         1
         1
         1
         1
         1
         1
         1
         1
         1
         1
         1
         1
         1
         1
         1
         1
         1
         1
         1
         1
         1
         1
         1
         1
         1
         1
         1
         1
         1
         1
         1
         1
         1
         1
         1
         1
         1
         1
         1
         1
         1
         1
         1
         1
         1
         1
         1
         1
         1
         1
         1
         1
         1
         1
         1
         1
         1
         1
         1
         1
 SCALARS elIdG          int           1
LOOKUP_TABLE default
         1
         2
         3
         4
         5
         6
         7
         8
         9
        10
        11
        12
        13
        14
        15
        16
        17
        18
        19
        20
        21
        22
        23
        24
        25
        26
        27
        28
        29
        30
        31
        32
        33
        34
        35
        36
        37
        38
        39
        40
        41
        42
        43
        44
        45
        46
        47
        48
        49
        50
        51
        52
        53
        54
        55
        56
        57
        58
        59
        60
        61
        62
        63
        64
        65
        66
        67
        68
        69
        70
        71
        72
        73
        74
        75
        76
        77
        78
        79
        80
        81
        82
        83
        84
        85
        86
        87
        88
        89
        90
        91
        92
        93
        94
        95
        96
        97
        98
        99
       100
       101
       102
       103
       104
       105
       106
       107
       108
       109
       110
       111
       112
       113
       114
       115
       116
       117
       118
       119
       120
       121
       122
       123
       124
       125
       126
       127
       128
       129
       130
       131
       132
       133
       134
       135
       136
       137
       138
       139
       140
       141
       142
       143
       144
       145
       146
       147
       148
       149
       150
       151
       152
       153
       154
       155
       156
       157
       158
       159
       160
       161
       162
       163
       164
       165
       166
       167
       168
       169
       170
       171
       172
       173
       174
       175
       176
       177
       178
       179
       180
       181
       182
       183
       184
       185
       186
       187
       188
       189
       190
       191
       192
       193
       194
       195
       196
       197
       198
       199
       200
       201
       202
       203
       204
       205
       206
       207
       208
       209
       210
       211
       212
       213
       214
       215
       216
       217
       218
       219
       220
       221
       222
       223
       224
       225
       226
       227
       228
       229
       230
       231
       232
       233
       234
       235
       236
       237
       238
       239
       240
       241
       242
       243
       244
       245
       246
       247
       248
       249
       250
       251
       252
       253
       254
       255
       256
       257
       258
       259
       260
       261
       262
       263
       264
       265
       266
       267
       268
       269
       270
       271
       272
       273
       274
       275
       276
       277
       278
       279
       280
       281
       282
       283
       284
       285
       286
       287
       288
       289
       290
       291
       292
       293
       294
       295
       296
       297
       298
       299
       300
       301
       302
       303
       304
       305
       306
       307
       308
       309
       310
       311
       312
       313
       314
       315
       316
       317
       318
       319
       320
       321
       322
       323
       324
       325
       326
       327
       328
       329
       330
       331
       332
       333
       334
       335
       336
       337
       338
       339
       340
       341
       342
       343
       344
       345
       346
       347
       348
       349
       350
       351
       352
       353
       354
       355
       356
       357
       358
       359
       360
       361
       362
       363
       364
       365
       366
       367
       368
       369
       370
       371
       372
       373
       374
       375
       376
       377
       378
       379
       380
       381
       382
       383
       384
       385
       386
       387
       388
       389
       390
       391
       392
       393
       394
       395
       396
       397
       398
       399
       400
       401
       402
       403
       404
       405
       406
       407
       408
       409
       410
       411
       412
       413
       414
       415
       416
       417
       418
       419
       420
       421
       422
       423
       424
       425
       426
       427
       428
       429
       430
       431
       432
       433
       434
       435
       436
       437
       438
       439
       440
       441
       442
       443
       444
       445
       446
       447
       448
       449
       450
       451
       452
       453
       454
       455
       456
       457
       458
       459
       460
       461
       462
       463
       464
       465
       466
       467
       468
       469
       470
       471
       472
       473
       474
       475
       476
       477
       478
       479
       480
       481
       482
       483
       484
       485
       486
       487
       488
       489
       490
       491
       492
       493
       494
       495
       496
       497
       498
       499
       500
       501
       502
       503
       504
       505
       506
       507
       508
       509
       510
       511
       512
       513
       514
       515
       516
       517
       518
       519
       520
       521
       522
       523
       524
       525
       526
       527
       528
       529
       530
       531
       532
       533
       534
       535
       536
       537
       538
       539
       540
       541
       542
       543
       544
       545
       546
       547
       548
       549
       550
       551
       552
       553
       554
       555
       556
       557
       558
       559
       560
       561
       562
       563
       564
       565
       566
       567
       568
       569
       570
       571
       572
       573
       574
       575
       576
       577
       578
       579
       580
       581
       582
       583
       584
       585
       586
       587
       588
       589
       590
       591
       592
       593
       594
       595
       596
       597
       598
       599
       600
       601
       602
       603
       604
       605
       606
       607
       608
       609
       610
       611
       612
       613
       614
       615
       616
       617
       618
       619
       620
       621
       622
       623
       624
       625
       626
       627
       628
       629
       630
       631
       632
       633
       634
       635
       636
       637
       638
       639
       640
       641
       642
       643
       644
       645
       646
       647
       648
       649
       650
       651
       652
       653
       654
       655
       656
       657
       658
       659
       660
       661
       662
       663
       664
       665
       666
       667
       668
       669
       670
       671
       672
       673
       674
       675
       676
       677
       678
       679
       680
       681
       682
       683
       684
       685
       686
       687
       688
       689
       690
       691
       692
       693
       694
       695
       696
       697
       698
       699
       700
       701
       702
       703
       704
       705
       706
       707
       708
       709
       710
       711
       712
       713
       714
       715
       716
       717
       718
       719
       720
       721
       722
       723
       724
       725
       726
       727
       728
       729
       730
       731
       732
       733
       734
       735
       736
       737
       738
       739
       740
       741
       742
       743
       744
       745
       746
       747
       748
       749
       750
       751
       752
       753
       754
       755
       756
       757
       758
       759
       760
       761
       762
       763
       764
       765
       766
       767
       768
       769
       770
       771
       772
       773
       774
       775
       776
       777
       778
       779
       780
       781
       782
       783
       784
       785
       786
       787
       788
       789
       790
       791
       792
       793
       794
       795
       796
       797
       798
       799
       800
       801
       802
       803
       804
       805
       806
       807
       808
       809
       810
       811
       812
       813
       814
       815
       816
       817
       818
       819
       820
       821
       822
       823
       824
       825
       826
       827
       828
       829
       830
       831
       832
       833
       834
       835
       836
       837
       838
       839
       840
       841
       842
       843
       844
       845
       846
       847
       848
       849
       850
       851
       852
       853
       854
       855
       856
       857
       858
       859
       860
       861
       862
       863
       864
       865
       866
       867
       868
       869
       870
       871
       872
       873
       874
       875
       876
       877
       878
       879
       880
       881
       882
       883
       884
       885
       886
       887
       888
       889
       890
       891
       892
       893
       894
       895
       896
       897
       898
       899
       900
       901
       902
       903
       904
       905
       906
       907
       908
       909
       910
       911
       912
       913
       914
       915
       916
       917
       918
       919
       920
       921
       922
       923
       924
       925
       926
       927
       928
       929
       930
       931
       932
       933
       934
       935
       936
       937
       938
       939
       940
       941
       942
       943
       944
       945
       946
       947
       948
       949
       950
       951
       952
       953
       954
       955
       956
       957
       958
       959
       960
       961
       962
       963
       964
       965
       966
       967
       968
       969
       970
       971
       972
       973
       974
       975
       976
       977
       978
       979
       980
       981
       982
       983
       984
       985
       986
       987
       988
       989
       990
       991
       992
       993
       994
       995
       996
       997
       998
       999
      1000
      1001
      1002
      1003
      1004
      1005
      1006
      1007
      1008
      1009
      1010
      1011
      1012
      1013
      1014
      1015
      1016
      1017
      1018
      1019
      1020
      1021
      1022
      1023
      1024
      1025
      1026
      1027
      1028
      1029
      1030
      1031
      1032
      1033
      1034
      1035
      1036
      1037
      1038
      1039
      1040
      1041
      1042
      1043
      1044
      1045
      1046
      1047
      1048
      1049
      1050
      1051
      1052
      1053
      1054
      1055
      1056
      1057
      1058
      1059
      1060
      1061
      1062
      1063
      1064
      1065
      1066
      1067
      1068
      1069
      1070
      1071
      1072
      1073
      1074
      1075
      1076
      1077
      1078
      1079
      1080
      1081
      1082
      1083
      1084
      1085
      1086
      1087
      1088
      1089
      1090
      1091
      1092
      1093
      1094
      1095
      1096
      1097
      1098
      1099
      1100
      1101
      1102
      1103
      1104
      1105
      1106
      1107
      1108
      1109
      1110
      1111
      1112
      1113
      1114
      1115
      1116
      1117
      1118
      1119
      1120
      1121
      1122
      1123
      1124
      1125
      1126
      1127
      1128
      1129
      1130
      1131
      1132
      1133
      1134
      1135
      1136
      1137
      1138
      1139
      1140
      1141
      1142
      1143
      1144
      1145
      1146
      1147
      1148
      1149
      1150
      1151
      1152
      1153
      1154
      1155
      1156
      1157
      1158
      1159
      1160
      1161
      1162
      1163
      1164
      1165
      1166
      1167
      1168
      1169
      1170
      1171
      1172
      1173
      1174
      1175
      1176
      1177
      1178
      1179
      1180
      1181
      1182
      1183
      1184
      1185
      1186
      1187
      1188
      1189
      1190
      1191
      1192
      1193
      1194
      1195
      1196
      1197
      1198
      1199
      1200
      1201
      1202
      1203
      1204
      1205
      1206
      1207
      1208
      1209
      1210
      1211
      1212
      1213
      1214
      1215
      1216
      1217
      1218
      1219
      1220
      1221
      1222
      1223
      1224
      1225
      1226
      1227
      1228
      1229
      1230
      1231
      1232
      1233
      1234
      1235
      1236
      1237
      1238
      1239
      1240
      1241
      1242
      1243
      1244
      1245
      1246
      1247
      1248
      1249
      1250
      1251
      1252
      1253
      1254
      1255
      1256
      1257
      1258
      1259
      1260
      1261
      1262
      1263
      1264
      1265
      1266
      1267
      1268
      1269
      1270
      1271
      1272
      1273
      1274
      1275
      1276
      1277
      1278
      1279
      1280
      1281
      1282
      1283
      1284
      1285
      1286
      1287
      1288
      1289
      1290
      1291
      1292
      1293
      1294
      1295
      1296
      1297
      1298
      1299
      1300
      1301
      1302
      1303
      1304
      1305
      1306
      1307
      1308
      1309
      1310
      1311
      1312
      1313
      1314
      1315
      1316
      1317
      1318
      1319
      1320
      1321
      1322
      1323
      1324
      1325
      1326
      1327
      1328
      1329
      1330
      1331
      1332
      1333
      1334
      1335
      1336
      1337
      1338
      1339
      1340
      1341
      1342
      1343
      1344
      1345
      1346
      1347
      1348
      1349
      1350
      1351
      1352
      1353
      1354
      1355
      1356
      1357
      1358
      1359
      1360
      1361
      1362
      1363
      1364
      1365
      1366
      1367
      1368
      1369
      1370
      1371
      1372
      1373
      1374
      1375
      1376
      1377
      1378
      1379
      1380
      1381
      1382
      1383
      1384
      1385
      1386
      1387
      1388
      1389
      1390
      1391
      1392
      1393
      1394
      1395
      1396
      1397
      1398
      1399
      1400
      1401
      1402
      1403
      1404
      1405
      1406
      1407
      1408
      1409
      1410
      1411
      1412
      1413
      1414
      1415
      1416
      1417
      1418
      1419
      1420
      1421
      1422
      1423
      1424
      1425
      1426
      1427
      1428
      1429
      1430
      1431
      1432
      1433
      1434
      1435
      1436
      1437
      1438
      1439
      1440
      1441
      1442
      1443
      1444
      1445
      1446
      1447
      1448
      1449
      1450
      1451
      1452
      1453
      1454
      1455
      1456
      1457
      1458
      1459
      1460
      1461
      1462
      1463
      1464
      1465
      1466
      1467
      1468
      1469
      1470
      1471
      1472
      1473
      1474
      1475
      1476
      1477
      1478
      1479
      1480
      1481
      1482
      1483
      1484
      1485
      1486
      1487
      1488
      1489
      1490
      1491
      1492
      1493
      1494
      1495
      1496
      1497
      1498
      1499
      1500
      1501
      1502
      1503
      1504
      1505
      1506
      1507
      1508
      1509
      1510
      1511
      1512
      1513
      1514
      1515
      1516
      1517
      1518
      1519
      1520
      1521
      1522
      1523
      1524
      1525
      1526
      1527
      1528
      1529
      1530
      1531
      1532
      1533
      1534
      1535
      1536
      1537
      1538
      1539
      1540
      1541
      1542
      1543
      1544
      1545
      1546
      1547
      1548
      1549
      1550
      1551
      1552
      1553
      1554
      1555
      1556
      1557
      1558
      1559
      1560
      1561
      1562
      1563
      1564
      1565
      1566
      1567
      1568
      1569
      1570
      1571
      1572
      1573
      1574
      1575
      1576
      1577
      1578
      1579
      1580
      1581
      1582
      1583
      1584
      1585
      1586
      1587
      1588
      1589
      1590
      1591
      1592
      1593
      1594
      1595
      1596
      1597
      1598
      1599
      1600
      1601
      1602
      1603
      1604
      1605
      1606
      1607
      1608
      1609
      1610
      1611
      1612
      1613
      1614
      1615
      1616
      1617
      1618
      1619
      1620
      1621
      1622
      1623
      1624
      1625
      1626
      1627
      1628
      1629
      1630
      1631
      1632
      1633
      1634
      1635
      1636
      1637
      1638
      1639
      1640
      1641
      1642
      1643
      1644
      1645
      1646
      1647
      1648
      1649
      1650
      1651
      1652
      1653
      1654
      1655
      1656
      1657
      1658
      1659
      1660
      1661
      1662
      1663
      1664
      1665
      1666
      1667
      1668
      1669
      1670
      1671
      1672
      1673
      1674
      1675
      1676
      1677
      1678
      1679
      1680
      1681
      1682
      1683
      1684
      1685
      1686
      1687
      1688
      1689
      1690
      1691
      1692
      1693
      1694
      1695
      1696
      1697
      1698
      1699
      1700
      1701
      1702
      1703
      1704
      1705
      1706
      1707
      1708
      1709
      1710
      1711
      1712
      1713
      1714
      1715
      1716
      1717
      1718
      1719
      1720
      1721
      1722
      1723
      1724
      1725
      1726
      1727
      1728
      1729
      1730
      1731
      1732
      1733
      1734
      1735
      1736
      1737
      1738
      1739
      1740
      1741
      1742
      1743
      1744
      1745
      1746
      1747
      1748
      1749
      1750
      1751
      1752
      1753
      1754
      1755
      1756
      1757
      1758
      1759
      1760
      1761
      1762
      1763
      1764
      1765
      1766
      1767
      1768
      1769
      1770
      1771
      1772
      1773
      1774
      1775
      1776
      1777
      1778
      1779
      1780
      1781
      1782
      1783
      1784
      1785
      1786
      1787
      1788
      1789
      1790
      1791
      1792
      1793
      1794
      1795
      1796
      1797
      1798
      1799
      1800
      1801
      1802
      1803
      1804
      1805
      1806
      1807
      1808
      1809
      1810
      1811
      1812
      1813
      1814
      1815
      1816
      1817
      1818
      1819
      1820
      1821
      1822
      1823
      1824
      1825
      1826
      1827
      1828
      1829
      1830
      1831
      1832
      1833
      1834
      1835
      1836
      1837
      1838
      1839
      1840
      1841
      1842
      1843
      1844
      1845
      1846
      1847
      1848
      1849
      1850
      1851
      1852
      1853
      1854
      1855
      1856
      1857
      1858
      1859
      1860
      1861
      1862
      1863
      1864
      1865
      1866
      1867
      1868
      1869
      1870
      1871
      1872
      1873
      1874
      1875
      1876
      1877
      1878
      1879
      1880
      1881
      1882
      1883
      1884
      1885
      1886
      1887
      1888
      1889
      1890
      1891
      1892
      1893
      1894
      1895
      1896
      1897
      1898
      1899
      1900
      1901
      1902
      1903
      1904
      1905
      1906
      1907
      1908
      1909
      1910
      1911
      1912
      1913
      1914
      1915
      1916
      1917
      1918
      1919
      1920
      1921
      1922
      1923
      1924
      1925
      1926
      1927
      1928
      1929
      1930
      1931
      1932
      1933
      1934
      1935
      1936
      1937
      1938
      1939
      1940
      1941
      1942
      1943
      1944
      1945
      1946
      1947
      1948
      1949
      1950
      1951
      1952
      1953
      1954
      1955
      1956
      1957
      1958
      1959
      1960
      1961
      1962
      1963
      1964
      1965
      1966
      1967
      1968
      1969
      1970
      1971
      1972
      1973
      1974
      1975
      1976
      1977
      1978
      1979
      1980
      1981
      1982
      1983
      1984
      1985
      1986
      1987
      1988
      1989
      1990
      1991
      1992
      1993
      1994
      1995
      1996
      1997
      1998
      1999
      2000
      2001
      2002
      2003
      2004
      2005
      2006
      2007
      2008
      2009
      2010
      2011
      2012
      2013
      2014
      2015
      2016
      2017
      2018
      2019
      2020
      2021
      2022
      2023
      2024
      2025
      2026
      2027
      2028
      2029
      2030
      2031
      2032
      2033
      2034
      2035
      2036
      2037
      2038
      2039
      2040
      2041
      2042
      2043
      2044
      2045
      2046
      2047
      2048
      2049
      2050
      2051
      2052
      2053
      2054
      2055
      2056
      2057
      2058
      2059
      2060
      2061
      2062
      2063
      2064
      2065
      2066
      2067
      2068
      2069
      2070
      2071
      2072
      2073
      2074
      2075
      2076
      2077
      2078
      2079
      2080
      2081
      2082
      2083
      2084
      2085
      2086
      2087
      2088
      2089
      2090
      2091
      2092
      2093
      2094
      2095
      2096
      2097
      2098
      2099
      2100
      2101
      2102
      2103
      2104
      2105
      2106
      2107
      2108
      2109
      2110
      2111
      2112
      2113
      2114
      2115
      2116
      2117
      2118
      2119
      2120
      2121
      2122
      2123
      2124
      2125
      2126
      2127
      2128
      2129
      2130
      2131
      2132
      2133
      2134
      2135
      2136
      2137
      2138
      2139
      2140
      2141
      2142
      2143
      2144
      2145
      2146
      2147
      2148
      2149
      2150
      2151
      2152
      2153
      2154
      2155
      2156
      2157
      2158
      2159
      2160
      2161
      2162
      2163
      2164
      2165
      2166
      2167
      2168
      2169
      2170
      2171
      2172
      2173
      2174
      2175
      2176
      2177
      2178
      2179
      2180
      2181
      2182
      2183
      2184
      2185
      2186
      2187
      2188
      2189
      2190
      2191
      2192
      2193
      2194
      2195
      2196
      2197
      2198
      2199
      2200
      2201
      2202
      2203
      2204
      2205
      2206
      2207
      2208
      2209
      2210
      2211
      2212
      2213
      2214
      2215
      2216
      2217
      2218
      2219
      2220
      2221
      2222
      2223
      2224
      2225
      2226
      2227
      2228
      2229
      2230
      2231
      2232
      2233
      2234
      2235
      2236
      2237
      2238
      2239
      2240
      2241
      2242
      2243
      2244
      2245
      2246
      2247
      2248
      2249
      2250
      2251
      2252
      2253
      2254
      2255
      2256
      2257
      2258
      2259
      2260
      2261
      2262
      2263
      2264
      2265
      2266
      2267
      2268
      2269
      2270
      2271
      2272
      2273
      2274
      2275
      2276
      2277
      2278
      2279
      2280
      2281
      2282
      2283
      2284
      2285
      2286
      2287
      2288
      2289
      2290
      2291
      2292
      2293
      2294
      2295
      2296
      2297
      2298
      2299
      2300
      2301
      2302
      2303
      2304
      2305
      2306
      2307
      2308
      2309
      2310
      2311
      2312
      2313
      2314
      2315
      2316
      2317
      2318
      2319
      2320
      2321
      2322
      2323
      2324
      2325
      2326
      2327
      2328
      2329
      2330
      2331
      2332
      2333
      2334
      2335
      2336
      2337
      2338
      2339
      2340
      2341
      2342
      2343
      2344
      2345
      2346
      2347
      2348
      2349
      2350
      2351
      2352
      2353
      2354
      2355
      2356
      2357
      2358
      2359
      2360
      2361
      2362
      2363
      2364
      2365
      2366
      2367
      2368
      2369
      2370
      2371
      2372
      2373
      2374
      2375
      2376
      2377
      2378
      2379
      2380
      2381
      2382
      2383
      2384
      2385
      2386
      2387
      2388
      2389
      2390
      2391
      2392
      2393
      2394
      2395
      2396
      2397
      2398
      2399
      2400
      2401
      2402
      2403
      2404
      2405
      2406
      2407
      2408
      2409
      2410
      2411
      2412
      2413
      2414
      2415
      2416
      2417
      2418
      2419
      2420
      2421
      2422
      2423
      2424
      2425
      2426
      2427
      2428
      2429
      2430
      2431
      2432
      2433
      2434
      2435
      2436
      2437
      2438
      2439
      2440
      2441
      2442
      2443
      2444
      2445
      2446
      2447
      2448
      2449
      2450
      2451
      2452
      2453
      2454
      2455
      2456
      2457
      2458
      2459
      2460
      2461
      2462
      2463
      2464
      2465
      2466
      2467
      2468
      2469
      2470
      2471
      2472
      2473
      2474
      2475
      2476
      2477
      2478
      2479
      2480
      2481
      2482
      2483
      2484
      2485
      2486
      2487
      2488
      2489
      2490
      2491
      2492
      2493
      2494
      2495
      2496
      2497
      2498
      2499
      2500
      2501
      2502
      2503
      2504
      2505
      2506
      2507
      2508
      2509
      2510
      2511
      2512
      2513
      2514
      2515
      2516
      2517
      2518
      2519
      2520
      2521
      2522
      2523
      2524
      2525
      2526
      2527
      2528
      2529
      2530
      2531
      2532
      2533
      2534
      2535
      2536
      2537
      2538
      2539
      2540
      2541
      2542
      2543
      2544
      2545
      2546
      2547
      2548
      2549
      2550
      2551
      2552
      2553
      2554
      2555
      2556
      2557
      2558
      2559
      2560
      2561
      2562
      2563
      2564
      2565
      2566
      2567
      2568
      2569
      2570
      2571
      2572
      2573
      2574
      2575
      2576
      2577
      2578
      2579
      2580
      2581
      2582
      2583
      2584
      2585
      2586
      2587
      2588
      2589
      2590
      2591
      2592
      2593
      2594
      2595
      2596
      2597
      2598
      2599
      2600
      2601
      2602
      2603
      2604
      2605
      2606
      2607
      2608
      2609
      2610
      2611
      2612
      2613
      2614
      2615
      2616
      2617
      2618
      2619
      2620
      2621
      2622
      2623
      2624
      2625
      2626
      2627
      2628
      2629
      2630
      2631
      2632
      2633
      2634
      2635
      2636
      2637
      2638
      2639
      2640
      2641
      2642
      2643
      2644
      2645
      2646
      2647
      2648
      2649
      2650
      2651
      2652
      2653
      2654
      2655
      2656
      2657
      2658
      2659
      2660
      2661
      2662
      2663
      2664
      2665
      2666
      2667
      2668
      2669
      2670
      2671
      2672
      2673
      2674
      2675
      2676
      2677
      2678
      2679
      2680
      2681
      2682
      2683
      2684
      2685
      2686
      2687
      2688
      2689
      2690
      2691
      2692
      2693
      2694
      2695
      2696
      2697
      2698
      2699
      2700
      2701
      2702
      2703
      2704
      2705
      2706
      2707
      2708
      2709
      2710
      2711
      2712
      2713
      2714
      2715
      2716
      2717
      2718
      2719
      2720
      2721
      2722
      2723
      2724
      2725
      2726
      2727
      2728
      2729
      2730
      2731
      2732
      2733
      2734
      2735
      2736
      2737
      2738
      2739
      2740
      2741
      2742
      2743
      2744
      2745
      2746
      2747
      2748
      2749
      2750
      2751
      2752
      2753
      2754
      2755
      2756
      2757
      2758
      2759
      2760
      2761
      2762
      2763
      2764
      2765
      2766
      2767
      2768
      2769
      2770
      2771
      2772
      2773
      2774
      2775
      2776
      2777
      2778
      2779
      2780
      2781
      2782
      2783
      2784
      2785
      2786
      2787
      2788
      2789
      2790
      2791
      2792
      2793
      2794
      2795
      2796
      2797
      2798
      2799
      2800
      2801
      2802
      2803
      2804
      2805
      2806
      2807
      2808
      2809
      2810
      2811
      2812
      2813
      2814
      2815
      2816
      2817
      2818
      2819
      2820
      2821
      2822
      2823
      2824
      2825
      2826
      2827
      2828
      2829
      2830
      2831
      2832
      2833
      2834
      2835
      2836
      2837
      2838
      2839
      2840
      2841
      2842
      2843
      2844
      2845
      2846
      2847
      2848
      2849
      2850
      2851
      2852
      2853
      2854
      2855
      2856
      2857
      2858
      2859
      2860
      2861
      2862
      2863
      2864
      2865
      2866
      2867
      2868
      2869
      2870
      2871
      2872
      2873
      2874
      2875
      2876
      2877
      2878
      2879
      2880
      2881
      2882
      2883
      2884
      2885
      2886
      2887
      2888
      2889
      2890
      2891
      2892
      2893
      2894
      2895
      2896
      2897
      2898
      2899
      2900
      2901
      2902
      2903
      2904
      2905
      2906
      2907
      2908
      2909
      2910
      2911
      2912
      2913
      2914
      2915
      2916
      2917
      2918
      2919
      2920
      2921
      2922
      2923
      2924
      2925
      2926
      2927
      2928
      2929
      2930
      2931
      2932
      2933
      2934
      2935
      2936
      2937
      2938
      2939
      2940
      2941
      2942
      2943
      2944
      2945
      2946
      2947
      2948
      2949
      2950
      2951
      2952
      2953
      2954
      2955
      2956
      2957
      2958
      2959
      2960
      2961
      2962
      2963
      2964
      2965
      2966
      2967
      2968
      2969
      2970
      2971
      2972
      2973
      2974
      2975
      2976
      2977
      2978
      2979
      2980
      2981
      2982
      2983
      2984
      2985
      2986
      2987
      2988
      2989
      2990
      2991
      2992
      2993
      2994
      2995
      2996
      2997
      2998
      2999
      3000
      3001
      3002
      3003
      3004
      3005
      3006
      3007
      3008
      3009
      3010
      3011
      3012
      3013
      3014
      3015
      3016
      3017
      3018
      3019
      3020
      3021
      3022
      3023
      3024
      3025
      3026
      3027
      3028
      3029
      3030
      3031
      3032
      3033
      3034
      3035
      3036
      3037
      3038
      3039
      3040
      3041
      3042
      3043
      3044
      3045
      3046
      3047
      3048
      3049
      3050
      3051
      3052
      3053
      3054
      3055
      3056
      3057
      3058
      3059
      3060
      3061
      3062
      3063
      3064
      3065
      3066
      3067
      3068
      3069
      3070
      3071
      3072
      3073
      3074
      3075
      3076
      3077
      3078
      3079
      3080
      3081
      3082
      3083
      3084
      3085
      3086
      3087
      3088
      3089
      3090
      3091
      3092
      3093
      3094
      3095
      3096
      3097
      3098
      3099
      3100
      3101
      3102
      3103
      3104
      3105
      3106
      3107
      3108
      3109
      3110
      3111
      3112
      3113
      3114
      3115
      3116
      3117
      3118
      3119
      3120
      3121
      3122
      3123
      3124
      3125
      3126
      3127
      3128
      3129
      3130
      3131
      3132
      3133
      3134
      3135
      3136
      3137
      3138
      3139
      3140
      3141
      3142
      3143
      3144
      3145
      3146
      3147
      3148
      3149
      3150
      3151
      3152
      3153
      3154
      3155
      3156
      3157
      3158
      3159
      3160
      3161
      3162
      3163
      3164
      3165
      3166
      3167
      3168
      3169
      3170
      3171
      3172
      3173
      3174
      3175
      3176
      3177
      3178
      3179
      3180
      3181
      3182
      3183
      3184
      3185
      3186
      3187
      3188
      3189
      3190
      3191
      3192
      3193
      3194
      3195
      3196
      3197
      3198
      3199
      3200
      3201
      3202
      3203
      3204
      3205
      3206
      3207
      3208
      3209
      3210
      3211
      3212
      3213
      3214
      3215
      3216
      3217
      3218
      3219
      3220
      3221
      3222
      3223
      3224
      3225
      3226
      3227
      3228
      3229
      3230
      3231
      3232
      3233
      3234
      3235
      3236
      3237
      3238
      3239
      3240
      3241
      3242
      3243
      3244
      3245
      3246
      3247
      3248
      3249
      3250
      3251
      3252
      3253
      3254
      3255
      3256
      3257
      3258
      3259
      3260
      3261
      3262
      3263
      3264
      3265
      3266
      3267
      3268
      3269
      3270
      3271
      3272
      3273
      3274
      3275
      3276
      3277
      3278
      3279
      3280
      3281
      3282
      3283
      3284
      3285
      3286
      3287
      3288
      3289
      3290
      3291
      3292
      3293
      3294
      3295
      3296
      3297
      3298
      3299
      3300
      3301
      3302
      3303
      3304
      3305
      3306
      3307
      3308
      3309
      3310
      3311
      3312
      3313
      3314
      3315
      3316
      3317
      3318
      3319
      3320
      3321
      3322
      3323
      3324
      3325
      3326
      3327
      3328
      3329
      3330
      3331
      3332
      3333
      3334
      3335
      3336
      3337
      3338
      3339
      3340
      3341
      3342
      3343
      3344
      3345
      3346
      3347
      3348
      3349
      3350
      3351
      3352
      3353
      3354
      3355
      3356
      3357
      3358
      3359
      3360
      3361
      3362
      3363
      3364
      3365
      3366
      3367
      3368
      3369
      3370
      3371
      3372
      3373
      3374
      3375
      3376
      3377
      3378
      3379
      3380
      3381
      3382
      3383
      3384
      3385
      3386
      3387
      3388
      3389
      3390
      3391
      3392
      3393
      3394
      3395
      3396
      3397
      3398
      3399
      3400
      3401
      3402
      3403
      3404
      3405
      3406
      3407
      3408
      3409
      3410
      3411
      3412
      3413
      3414
      3415
      3416
      3417
      3418
      3419
      3420
      3421
      3422
      3423
      3424
      3425
      3426
      3427
      3428
      3429
      3430
      3431
      3432
      3433
      3434
      3435
      3436
      3437
      3438
      3439
      3440
      3441
      3442
      3443
      3444
      3445
      3446
      3447
      3448
      3449
      3450
      3451
      3452
      3453
      3454
      3455
      3456
      3457
      3458
      3459
      3460
      3461
      3462
      3463
      3464
      3465
      3466
      3467
      3468
      3469
      3470
      3471
      3472
      3473
      3474
      3475
      3476
      3477
      3478
      3479
      3480
      3481
      3482
      3483
      3484
      3485
      3486
      3487
      3488
      3489
      3490
      3491
      3492
      3493
      3494
      3495
      3496
      3497
      3498
      3499
      3500
      3501
      3502
      3503
      3504
      3505
      3506
      3507
      3508
      3509
      3510
      3511
      3512
      3513
      3514
      3515
      3516
      3517
      3518
      3519
      3520
      3521
      3522
      3523
      3524
      3525
      3526
      3527
      3528
      3529
      3530
      3531
      3532
      3533
      3534
      3535
      3536
      3537
      3538
      3539
      3540
      3541
      3542
      3543
      3544
      3545
      3546
      3547
      3548
      3549
      3550
      3551
      3552
      3553
      3554
      3555
      3556
      3557
      3558
      3559
      3560
      3561
      3562
      3563
      3564
      3565
      3566
      3567
      3568
      3569
      3570
      3571
      3572
      3573
      3574
      3575
      3576
      3577
      3578
      3579
      3580
      3581
      3582
      3583
      3584
      3585
      3586
      3587
      3588
      3589
      3590
      3591
      3592
      3593
      3594
      3595
      3596
      3597
      3598
      3599
      3600
      3601
      3602
      3603
      3604
      3605
      3606
      3607
      3608
      3609
      3610
      3611
      3612
      3613
      3614
      3615
      3616
      3617
      3618
      3619
      3620
      3621
      3622
      3623
      3624
      3625
      3626
      3627
      3628
      3629
      3630
      3631
      3632
      3633
      3634
      3635
      3636
      3637
      3638
      3639
      3640
      3641
      3642
      3643
      3644
      3645
      3646
      3647
      3648
      3649
      3650
      3651
      3652
      3653
      3654
      3655
      3656
      3657
      3658
      3659
      3660
      3661
      3662
      3663
      3664
      3665
      3666
      3667
      3668
      3669
      3670
      3671
      3672
      3673
      3674
      3675
      3676
      3677
      3678
      3679
      3680
      3681
      3682
      3683
      3684
      3685
      3686
      3687
      3688
      3689
      3690
      3691
      3692
      3693
      3694
      3695
      3696
      3697
      3698
      3699
      3700
      3701
      3702
      3703
      3704
      3705
      3706
      3707
      3708
      3709
      3710
      3711
      3712
      3713
      3714
      3715
      3716
      3717
      3718
      3719
      3720
      3721
      3722
      3723
      3724
      3725
      3726
      3727
      3728
      3729
      3730
      3731
      3732
      3733
      3734
      3735
      3736
      3737
      3738
      3739
      3740
      3741
      3742
      3743
      3744
      3745
      3746
      3747
      3748
      3749
      3750
      3751
      3752
      3753
      3754
      3755
      3756
      3757
      3758
      3759
      3760
      3761
      3762
      3763
      3764
      3765
      3766
      3767
      3768
      3769
      3770
      3771
      3772
      3773
      3774
      3775
      3776
      3777
      3778
      3779
      3780
      3781
      3782
      3783
      3784
      3785
      3786
      3787
      3788
      3789
      3790
      3791
      3792
      3793
      3794
      3795
      3796
      3797
      3798
      3799
      3800
      3801
      3802
      3803
      3804
      3805
      3806
      3807
      3808
      3809
      3810
      3811
      3812
      3813
      3814
      3815
      3816
      3817
      3818
      3819
      3820
      3821
      3822
      3823
      3824
      3825
      3826
      3827
      3828
      3829
      3830
      3831
      3832
      3833
      3834
      3835
      3836
      3837
      3838
      3839
      3840
      3841
      3842
      3843
      3844
      3845
      3846
      3847
      3848
      3849
      3850
      3851
      3852
      3853
      3854
      3855
      3856
      3857
      3858
      3859
      3860
      3861
      3862
      3863
      3864
      3865
      3866
      3867
      3868
      3869
      3870
      3871
      3872
      3873
      3874
      3875
      3876
      3877
      3878
      3879
      3880
      3881
      3882
      3883
      3884
      3885
      3886
      3887
      3888
      3889
      3890
      3891
      3892
      3893
      3894
      3895
      3896
      3897
      3898
      3899
      3900
      3901
      3902
      3903
      3904
      3905
      3906
      3907
      3908
      3909
      3910
      3911
      3912
      3913
      3914
      3915
      3916
      3917
      3918
      3919
      3920
      3921
      3922
      3923
      3924
      3925
      3926
      3927
      3928
      3929
      3930
      3931
      3932
      3933
      3934
      3935
      3936
      3937
      3938
      3939
      3940
      3941
      3942
      3943
      3944
      3945
      3946
      3947
      3948
      3949
      3950
      3951
      3952
      3953
      3954
      3955
      3956
      3957
      3958
      3959
      3960
      3961
      3962
      3963
      3964
      3965
      3966
      3967
      3968
      3969
      3970
      3971
      3972
      3973
      3974
      3975
      3976
      3977
      3978
      3979
      3980
      3981
      3982
      3983
      3984
      3985
      3986
      3987
      3988
      3989
      3990
      3991
      3992
      3993
      3994
      3995
      3996
      3997
      3998
      3999
      4000
      4001
      4002
      4003
      4004
      4005
      4006
      4007
      4008
      4009
      4010
      4011
      4012
      4013
      4014
      4015
      4016
      4017
      4018
      4019
      4020
      4021
      4022
      4023
      4024
      4025
      4026
      4027
      4028
      4029
      4030
      4031
      4032
      4033
      4034
      4035
      4036
      4037
      4038
      4039
      4040
      4041
      4042
      4043
      4044
      4045
      4046
      4047
      4048
      4049
      4050
      4051
      4052
      4053
      4054
      4055
      4056
      4057
      4058
      4059
      4060
      4061
      4062
      4063
      4064
      4065
      4066
      4067
      4068
      4069
      4070
      4071
      4072
      4073
      4074
      4075
      4076
      4077
      4078
      4079
      4080
      4081
      4082
      4083
      4084
      4085
      4086
      4087
      4088
      4089
      4090
      4091
      4092
      4093
      4094
      4095
      4096
      4097
      4098
      4099
      4100
      4101
      4102
      4103
      4104
      4105
      4106
      4107
      4108
      4109
      4110
      4111
      4112
      4113
      4114
      4115
      4116
      4117
      4118
      4119
      4120
      4121
      4122
      4123
      4124
      4125
      4126
      4127
      4128
      4129
      4130
      4131
      4132
      4133
      4134
      4135
      4136
      4137
      4138
      4139
      4140
      4141
      4142
      4143
      4144
      4145
      4146
      4147
      4148
      4149
      4150
      4151
      4152
      4153
      4154
      4155
      4156
      4157
      4158
      4159
      4160
      4161
      4162
      4163
      4164
      4165
      4166
      4167
      4168
      4169
      4170
      4171
      4172
      4173
      4174
      4175
      4176
      4177
      4178
      4179
      4180
      4181
      4182
      4183
      4184
      4185
      4186
      4187
      4188
      4189
      4190
      4191
      4192
      4193
      4194
      4195
      4196
      4197
      4198
      4199
      4200
      4201
      4202
      4203
      4204
      4205
      4206
      4207
      4208
      4209
      4210
      4211
      4212
      4213
      4214
      4215
      4216
      4217
      4218
      4219
      4220
      4221
      4222
      4223
      4224
      4225
      4226
      4227
      4228
      4229
      4230
      4231
      4232
      4233
      4234
      4235
      4236
      4237
      4238
      4239
      4240
      4241
      4242
      4243
      4244
      4245
      4246
      4247
      4248
      4249
      4250
      4251
      4252
      4253
      4254
      4255
      4256
      4257
      4258
      4259
      4260
      4261
      4262
      4263
      4264
      4265
      4266
      4267
      4268
      4269
      4270
      4271
      4272
      4273
      4274
      4275
      4276
      4277
      4278
      4279
      4280
      4281
      4282
      4283
      4284
      4285
      4286
      4287
      4288
      4289
      4290
      4291
      4292
      4293
      4294
      4295
      4296
      4297
      4298
      4299
      4300
      4301
      4302
      4303
      4304
      4305
      4306
      4307
      4308
      4309
      4310
      4311
      4312
      4313
      4314
      4315
      4316
      4317
      4318
      4319
      4320
      4321
      4322
      4323
      4324
      4325
      4326
      4327
      4328
      4329
      4330
      4331
      4332
      4333
      4334
      4335
      4336
      4337
      4338
      4339
      4340
      4341
      4342
      4343
      4344
      4345
      4346
      4347
      4348
      4349
      4350
      4351
      4352
      4353
      4354
      4355
      4356
      4357
      4358
      4359
      4360
      4361
      4362
      4363
      4364
      4365
      4366
      4367
      4368
      4369
      4370
      4371
      4372
      4373
      4374
      4375
      4376
      4377
      4378
      4379
      4380
      4381
      4382
      4383
      4384
      4385
      4386
      4387
      4388
      4389
      4390
      4391
      4392
      4393
      4394
      4395
      4396
      4397
      4398
      4399
      4400
      4401
      4402
      4403
      4404
      4405
      4406
      4407
      4408
      4409
      4410
      4411
      4412
      4413
      4414
      4415
      4416
      4417
      4418
      4419
      4420
      4421
      4422
      4423
      4424
      4425
      4426
      4427
      4428
      4429
      4430
      4431
      4432
      4433
      4434
      4435
      4436
      4437
      4438
      4439
      4440
      4441
      4442
      4443
      4444
      4445
      4446
      4447
      4448
      4449
      4450
      4451
      4452
      4453
      4454
      4455
      4456
      4457
      4458
      4459
      4460
      4461
      4462
      4463
      4464
      4465
      4466
      4467
      4468
      4469
      4470
      4471
      4472
      4473
      4474
      4475
      4476
      4477
      4478
      4479
      4480
      4481
      4482
      4483
      4484
      4485
      4486
      4487
      4488
      4489
      4490
      4491
      4492
      4493
      4494
      4495
      4496
      4497
      4498
      4499
      4500
      4501
      4502
      4503
      4504
      4505
      4506
      4507
      4508
      4509
      4510
      4511
      4512
      4513
      4514
      4515
      4516
      4517
      4518
      4519
      4520
      4521
      4522
      4523
      4524
      4525
      4526
      4527
      4528
      4529
      4530
      4531
      4532
      4533
      4534
      4535
      4536
      4537
      4538
      4539
      4540
      4541
      4542
      4543
      4544
      4545
      4546
      4547
      4548
      4549
      4550
      4551
      4552
      4553
      4554
      4555
      4556
      4557
      4558
      4559
      4560
      4561
      4562
      4563
      4564
      4565
      4566
      4567
      4568
      4569
      4570
      4571
      4572
      4573
      4574
      4575
      4576
      4577
      4578
      4579
      4580
      4581
      4582
      4583
      4584
      4585
      4586
      4587
      4588
      4589
      4590
      4591
      4592
      4593
      4594
      4595
      4596
      4597
      4598
      4599
      4600
      4601
      4602
      4603
      4604
      4605
      4606
      4607
      4608
      4609
      4610
      4611
      4612
      4613
      4614
      4615
      4616
      4617
      4618
      4619
      4620
      4621
      4622
      4623
      4624
      4625
      4626
      4627
      4628
      4629
      4630
      4631
      4632
      4633
      4634
      4635
      4636
      4637
      4638
      4639
      4640
      4641
      4642
      4643
      4644
      4645
      4646
      4647
      4648
      4649
      4650
      4651
      4652
      4653
      4654
      4655
      4656
      4657
      4658
      4659
      4660
      4661
      4662
      4663
      4664
      4665
      4666
      4667
      4668
      4669
      4670
      4671
      4672
      4673
      4674
      4675
      4676
      4677
      4678
      4679
      4680
      4681
      4682
      4683
      4684
      4685
      4686
      4687
      4688
      4689
      4690
      4691
      4692
      4693
      4694
      4695
      4696
      4697
      4698
      4699
      4700
      4701
      4702
      4703
      4704
      4705
      4706
      4707
      4708
      4709
      4710
      4711
      4712
      4713
      4714
      4715
      4716
      4717
      4718
      4719
      4720
      4721
      4722
      4723
      4724
      4725
      4726
      4727
      4728
      4729
      4730
      4731
      4732
      4733
      4734
      4735
      4736
      4737
      4738
      4739
      4740
      4741
      4742
      4743
      4744
      4745
      4746
      4747
      4748
      4749
      4750
      4751
      4752
      4753
      4754
      4755
      4756
      4757
      4758
      4759
      4760
      4761
      4762
      4763
      4764
      4765
      4766
      4767
      4768
      4769
      4770
      4771
      4772
      4773
      4774
      4775
      4776
      4777
      4778
      4779
      4780
      4781
      4782
      4783
      4784
      4785
      4786
      4787
      4788
      4789
      4790
      4791
      4792
      4793
      4794
      4795
      4796
      4797
      4798
      4799
      4800
      4801
      4802
      4803
      4804
      4805
      4806
      4807
      4808
      4809
      4810
      4811
      4812
      4813
      4814
      4815
      4816
      4817
      4818
      4819
      4820
      4821
      4822
      4823
      4824
      4825
      4826
      4827
      4828
      4829
      4830
      4831
      4832
      4833
      4834
      4835
      4836
      4837
      4838
      4839
      4840
      4841
      4842
      4843
      4844
      4845
      4846
      4847
      4848
      4849
      4850
      4851
      4852
      4853
      4854
      4855
      4856
      4857
      4858
      4859
      4860
      4861
      4862
      4863
      4864
      4865
      4866
      4867
      4868
      4869
      4870
      4871
      4872
      4873
      4874
      4875
      4876
      4877
      4878
      4879
      4880
      4881
      4882
      4883
      4884
      4885
      4886
      4887
      4888
      4889
      4890
      4891
      4892
      4893
      4894
      4895
      4896
      4897
      4898
      4899
      4900
      4901
      4902
      4903
      4904
      4905
      4906
      4907
      4908
      4909
      4910
      4911
      4912
      4913
      4914
      4915
      4916
      4917
      4918
      4919
      4920
      4921
      4922
      4923
      4924
      4925
      4926
      4927
      4928
      4929
      4930
      4931
      4932
      4933
      4934
      4935
      4936
      4937
      4938
      4939
      4940
      4941
      4942
      4943
      4944
      4945
      4946
      4947
      4948
      4949
      4950
      4951
      4952
      4953
      4954
      4955
      4956
      4957
      4958
      4959
      4960
      4961
      4962
      4963
      4964
      4965
      4966
      4967
      4968
      4969
      4970
      4971
      4972
      4973
      4974
      4975
      4976
      4977
      4978
      4979
      4980
      4981
      4982
      4983
      4984
      4985
      4986
      4987
      4988
      4989
      4990
      4991
      4992
      4993
      4994
      4995
      4996
      4997
      4998
      4999
      5000
      5001
      5002
      5003
      5004
      5005
      5006
      5007
      5008
      5009
      5010
      5011
      5012
      5013
      5014
      5015
      5016
      5017
      5018
      5019
      5020
      5021
      5022
      5023
      5024
      5025
      5026
      5027
      5028
      5029
      5030
      5031
      5032
      5033
      5034
      5035
      5036
      5037
      5038
      5039
      5040
      5041
      5042
      5043
      5044
      5045
      5046
      5047
      5048
      5049
      5050
      5051
      5052
      5053
      5054
      5055
      5056
      5057
      5058
      5059
      5060
      5061
      5062
      5063
      5064
      5065
      5066
      5067
      5068
      5069
      5070
      5071
      5072
      5073
      5074
      5075
      5076
      5077
      5078
      5079
      5080
      5081
      5082
      5083
      5084
      5085
      5086
      5087
      5088
      5089
      5090
      5091
      5092
      5093
      5094
      5095
      5096
      5097
      5098
      5099
      5100
      5101
      5102
      5103
      5104
      5105
      5106
      5107
      5108
      5109
      5110
      5111
      5112
      5113
      5114
      5115
      5116
      5117
      5118
      5119
      5120
      5121
      5122
      5123
      5124
      5125
      5126
      5127
      5128
      5129
      5130
      5131
      5132
      5133
      5134
      5135
      5136
      5137
      5138
      5139
      5140
      5141
      5142
      5143
      5144
      5145
      5146
      5147
      5148
      5149
      5150
      5151
      5152
      5153
      5154
      5155
      5156
      5157
      5158
      5159
      5160
      5161
      5162
      5163
      5164
      5165
      5166
      5167
      5168
      5169
      5170
      5171
      5172
      5173
      5174
      5175
      5176
      5177
      5178
      5179
      5180
      5181
      5182
      5183
      5184
      5185
      5186
      5187
      5188
      5189
      5190
      5191
      5192
      5193
      5194
      5195
      5196
      5197
      5198
      5199
      5200
      5201
      5202
      5203
      5204
      5205
      5206
      5207
      5208
      5209
      5210
      5211
      5212
      5213
      5214
      5215
      5216
      5217
      5218
      5219
      5220
      5221
      5222
      5223
      5224
      5225
      5226
      5227
      5228
      5229
      5230
      5231
      5232
      5233
      5234
      5235
      5236
      5237
      5238
      5239
      5240
      5241
      5242
      5243
      5244
      5245
      5246
      5247
      5248
      5249
      5250
      5251
      5252
      5253
      5254
      5255
      5256
      5257
      5258
      5259
      5260
      5261
      5262
      5263
      5264
      5265
      5266
      5267
      5268
      5269
      5270
      5271
      5272
      5273
      5274
      5275
      5276
      5277
      5278
      5279
      5280
      5281
      5282
      5283
      5284
      5285
      5286
      5287
      5288
      5289
      5290
      5291
      5292
      5293
      5294
      5295
      5296
      5297
      5298
      5299
      5300
      5301
      5302
      5303
      5304
      5305
      5306
      5307
      5308
      5309
      5310
      5311
      5312
      5313
      5314
      5315
      5316
      5317
      5318
      5319
      5320
      5321
      5322
      5323
      5324
      5325
      5326
      5327
      5328
      5329
      5330
      5331
      5332
      5333
      5334
      5335
      5336
      5337
      5338
      5339
      5340
      5341
      5342
      5343
      5344
      5345
      5346
      5347
      5348
      5349
      5350
      5351
      5352
      5353
      5354
      5355
      5356
      5357
      5358
      5359
      5360
      5361
      5362
      5363
      5364
      5365
      5366
      5367
      5368
      5369
      5370
      5371
      5372
      5373
      5374
      5375
      5376
      5377
      5378
      5379
      5380
      5381
      5382
      5383
      5384
      5385
      5386
      5387
      5388
      5389
      5390
      5391
      5392
      5393
      5394
      5395
      5396
      5397
      5398
      5399
      5400
      5401
      5402
      5403
      5404
      5405
      5406
      5407
      5408
      5409
      5410
      5411
      5412
      5413
      5414
      5415
      5416
      5417
      5418
      5419
      5420
      5421
      5422
      5423
      5424
      5425
      5426
      5427
      5428
      5429
      5430
      5431
      5432
      5433
      5434
      5435
      5436
      5437
      5438
      5439
      5440
      5441
      5442
      5443
      5444
      5445
      5446
      5447
      5448
      5449
      5450
      5451
      5452
      5453
      5454
      5455
      5456
      5457
      5458
      5459
      5460
      5461
      5462
      5463
      5464
      5465
      5466
      5467
      5468
      5469
      5470
      5471
      5472
      5473
      5474
      5475
      5476
      5477
      5478
      5479
      5480
      5481
      5482
      5483
      5484
      5485
      5486
      5487
      5488
      5489
      5490
      5491
      5492
      5493
      5494
      5495
      5496
      5497
      5498
      5499
      5500
      5501
      5502
      5503
      5504
      5505
      5506
      5507
      5508
      5509
      5510
      5511
      5512
      5513
      5514
      5515
      5516
      5517
      5518
      5519
      5520
      5521
      5522
      5523
      5524
      5525
      5526
      5527
      5528
      5529
      5530
      5531
      5532
      5533
      5534
      5535
      5536
      5537
      5538
      5539
      5540
      5541
      5542
      5543
      5544
      5545
      5546
      5547
      5548
      5549
      5550
      5551
      5552
      5553
      5554
      5555
      5556
      5557
      5558
      5559
      5560
      5561
      5562
      5563
      5564
      5565
      5566
      5567
      5568
      5569
      5570
      5571
      5572
      5573
      5574
      5575
      5576
      5577
      5578
      5579
      5580
      5581
      5582
      5583
      5584
      5585
      5586
      5587
      5588
      5589
      5590
      5591
      5592
      5593
      5594
      5595
      5596
      5597
      5598
      5599
      5600
      5601
      5602
      5603
      5604
      5605
      5606
      5607
      5608
      5609
      5610
      5611
      5612
      5613
      5614
      5615
      5616
      5617
      5618
      5619
      5620
      5621
      5622
      5623
      5624
      5625
      5626
      5627
      5628
      5629
      5630
      5631
      5632
      5633
      5634
      5635
      5636
      5637
      5638
      5639
      5640
      5641
      5642
      5643
      5644
      5645
      5646
      5647
      5648
      5649
      5650
      5651
      5652
      5653
      5654
      5655
      5656
      5657
      5658
      5659
      5660
      5661
      5662
      5663
      5664
      5665
      5666
      5667
      5668
      5669
      5670
      5671
      5672
      5673
      5674
      5675
      5676
      5677
      5678
      5679
      5680
      5681
      5682
      5683
      5684
      5685
      5686
      5687
      5688
      5689
      5690
      5691
      5692
      5693
      5694
      5695
      5696
      5697
      5698
      5699
      5700
      5701
      5702
      5703
      5704
      5705
      5706
      5707
      5708
      5709
      5710
      5711
      5712
      5713
      5714
      5715
      5716
      5717
      5718
      5719
      5720
      5721
      5722
      5723
      5724
      5725
      5726
      5727
      5728
      5729
      5730
      5731
      5732
      5733
      5734
      5735
      5736
      5737
      5738
      5739
      5740
      5741
      5742
      5743
      5744
      5745
      5746
      5747
      5748
      5749
      5750
      5751
      5752
      5753
      5754
      5755
      5756
      5757
      5758
      5759
      5760
      5761
      5762
      5763
      5764
      5765
      5766
      5767
      5768
      5769
      5770
      5771
      5772
      5773
      5774
      5775
      5776
      5777
      5778
      5779
      5780
      5781
      5782
      5783
      5784
      5785
      5786
      5787
      5788
      5789
      5790
      5791
      5792
      5793
      5794
      5795
      5796
      5797
      5798
      5799
      5800
      5801
      5802
      5803
      5804
      5805
      5806
      5807
      5808
      5809
      5810
      5811
      5812
      5813
      5814
      5815
      5816
      5817
      5818
      5819
      5820
      5821
      5822
      5823
      5824
      5825
      5826
      5827
      5828
      5829
      5830
      5831
      5832
      5833
      5834
      5835
      5836
      5837
      5838
      5839
      5840
      5841
      5842
      5843
      5844
      5845
      5846
      5847
      5848
      5849
      5850
      5851
      5852
      5853
      5854
      5855
      5856
      5857
      5858
      5859
      5860
      5861
      5862
      5863
      5864
      5865
      5866
      5867
      5868
      5869
      5870
      5871
      5872
      5873
      5874
      5875
      5876
      5877
      5878
      5879
      5880
      5881
      5882
      5883
      5884
      5885
      5886
      5887
      5888
      5889
      5890
      5891
      5892
      5893
      5894
      5895
      5896
      5897
      5898
      5899
      5900
      5901
      5902
      5903
      5904
      5905
      5906
      5907
      5908
      5909
      5910
      5911
      5912
      5913
      5914
      5915
      5916
      5917
      5918
      5919
      5920
      5921
      5922
      5923
      5924
      5925
      5926
      5927
      5928
      5929
      5930
      5931
      5932
      5933
      5934
      5935
      5936
      5937
      5938
      5939
      5940
      5941
      5942
      5943
      5944
      5945
      5946
      5947
      5948
      5949
      5950
      5951
      5952
      5953
      5954
      5955
      5956
      5957
      5958
      5959
      5960
      5961
      5962
      5963
      5964
      5965
      5966
      5967
      5968
      5969
      5970
      5971
      5972
      5973
      5974
      5975
      5976
      5977
      5978
      5979
      5980
      5981
      5982
      5983
      5984
      5985
      5986
      5987
      5988
      5989
      5990
      5991
      5992
      5993
      5994
      5995
      5996
      5997
      5998
      5999
      6000
      6001
      6002
      6003
      6004
      6005
      6006
      6007
      6008
      6009
      6010
      6011
      6012
      6013
      6014
      6015
      6016
      6017
      6018
      6019
      6020
      6021
      6022
      6023
      6024
      6025
      6026
      6027
      6028
      6029
      6030
      6031
      6032
      6033
      6034
      6035
      6036
      6037
      6038
      6039
      6040
      6041
      6042
      6043
      6044
      6045
      6046
      6047
      6048
      6049
      6050
      6051
      6052
      6053
      6054
      6055
      6056
      6057
      6058
      6059
      6060
      6061
      6062
      6063
      6064
      6065
      6066
      6067
      6068
      6069
      6070
      6071
      6072
      6073
      6074
      6075
      6076
      6077
      6078
      6079
      6080
      6081
      6082
      6083
      6084
      6085
      6086
      6087
      6088
      6089
      6090
      6091
      6092
      6093
      6094
      6095
      6096
      6097
      6098
      6099
      6100
      6101
      6102
      6103
      6104
      6105
      6106
      6107
      6108
      6109
      6110
      6111
      6112
      6113
      6114
      6115
      6116
      6117
      6118
      6119
      6120
      6121
      6122
      6123
      6124
      6125
      6126
      6127
      6128
      6129
      6130
      6131
      6132
      6133
      6134
      6135
      6136
      6137
      6138
      6139
      6140
      6141
      6142
      6143
      6144
      6145
      6146
      6147
      6148
      6149
      6150
      6151
      6152
      6153
      6154
      6155
      6156
      6157
      6158
      6159
      6160
      6161
      6162
      6163
      6164
      6165
      6166
      6167
      6168
      6169
      6170
      6171
      6172
      6173
      6174
      6175
      6176
      6177
      6178
      6179
      6180
      6181
      6182
      6183
      6184
      6185
      6186
      6187
      6188
      6189
      6190
      6191
      6192
      6193
      6194
      6195
      6196
      6197
      6198
      6199
      6200
      6201
      6202
      6203
      6204
      6205
      6206
      6207
      6208
      6209
      6210
      6211
      6212
      6213
      6214
      6215
      6216
      6217
      6218
      6219
      6220
      6221
      6222
      6223
      6224
      6225
      6226
      6227
      6228
      6229
      6230
      6231
      6232
      6233
      6234
      6235
      6236
      6237
      6238
      6239
      6240
      6241
      6242
      6243
      6244
      6245
      6246
      6247
      6248
      6249
      6250
      6251
      6252
      6253
      6254
      6255
      6256
      6257
      6258
      6259
      6260
      6261
      6262
      6263
      6264
      6265
      6266
      6267
      6268
      6269
      6270
      6271
      6272
      6273
      6274
      6275
      6276
      6277
      6278
      6279
      6280
      6281
      6282
      6283
      6284
      6285
      6286
      6287
      6288
      6289
      6290
      6291
      6292
      6293
      6294
      6295
      6296
      6297
      6298
      6299
      6300
      6301
      6302
      6303
      6304
      6305
      6306
      6307
      6308
      6309
      6310
      6311
      6312
      6313
      6314
      6315
      6316
      6317
      6318
      6319
      6320
      6321
      6322
      6323
      6324
      6325
      6326
      6327
      6328
      6329
      6330
      6331
      6332
      6333
      6334
      6335
      6336
      6337
      6338
      6339
      6340
      6341
      6342
      6343
      6344
      6345
      6346
      6347
      6348
      6349
      6350
      6351
      6352
      6353
      6354
      6355
      6356
      6357
      6358
      6359
      6360
      6361
      6362
      6363
      6364
      6365
      6366
      6367
      6368
      6369
      6370
      6371
      6372
      6373
      6374
      6375
      6376
      6377
      6378
      6379
      6380
      6381
      6382
      6383
      6384
      6385
      6386
      6387
      6388
      6389
      6390
      6391
      6392
      6393
      6394
      6395
      6396
      6397
      6398
      6399
      6400
      6401
      6402
      6403
      6404
      6405
      6406
      6407
      6408
      6409
      6410
      6411
      6412
      6413
      6414
      6415
      6416
      6417
      6418
      6419
      6420
      6421
      6422
      6423
      6424
      6425
      6426
      6427
      6428
      6429
      6430
      6431
      6432
      6433
      6434
      6435
      6436
      6437
      6438
      6439
      6440
      6441
      6442
      6443
      6444
      6445
      6446
      6447
      6448
      6449
      6450
      6451
      6452
      6453
      6454
      6455
      6456
      6457
      6458
      6459
      6460
      6461
      6462
      6463
      6464
      6465
      6466
      6467
      6468
      6469
      6470
      6471
      6472
      6473
      6474
      6475
      6476
      6477
      6478
      6479
      6480
      6481
      6482
      6483
      6484
      6485
      6486
      6487
      6488
      6489
      6490
      6491
      6492
      6493
      6494
      6495
      6496
      6497
      6498
      6499
      6500
      6501
      6502
      6503
      6504
      6505
      6506
      6507
      6508
      6509
      6510
      6511
      6512
      6513
      6514
      6515
      6516
      6517
      6518
      6519
      6520
      6521
      6522
      6523
      6524
      6525
      6526
      6527
      6528
      6529
      6530
      6531
      6532
      6533
      6534
      6535
      6536
      6537
      6538
      6539
      6540
      6541
      6542
      6543
      6544
      6545
      6546
      6547
      6548
      6549
      6550
      6551
      6552
      6553
      6554
      6555
      6556
      6557
      6558
      6559
      6560
      6561
      6562
      6563
      6564
      6565
      6566
      6567
      6568
      6569
      6570
      6571
      6572
      6573
      6574
      6575
      6576
      6577
      6578
      6579
      6580
      6581
      6582
      6583
      6584
POINT_DATA      1377
SCALARS noIdG            int       1
LOOKUP_TABLE default
         1
         2
         3
         4
         5
         6
         7
         8
         9
        10
        11
        12
        13
        14
        15
        16
        17
        18
        19
        20
        21
        22
        23
        24
        25
        26
        27
        28
        29
        30
        31
        32
        33
        34
        35
        36
        37
        38
        39
        40
        41
        42
        43
        44
        45
        46
        47
        48
        49
        50
        51
        52
        53
        54
        55
        56
        57
        58
        59
        60
        61
        62
        63
        64
        65
        66
        67
        68
        69
        70
        71
        72
        73
        74
        75
        76
        77
        78
        79
        80
        81
        82
        83
        84
        85
        86
        87
        88
        89
        90
        91
        92
        93
        94
        95
        96
        97
        98
        99
       100
       101
       102
       103
       104
       105
       106
       107
       108
       109
       110
       111
       112
       113
       114
       115
       116
       117
       118
       119
       120
       121
       122
       123
       124
       125
       126
       127
       128
       129
       130
       131
       132
       133
       134
       135
       136
       137
       138
       139
       140
       141
       142
       143
       144
       145
       146
       147
       148
       149
       150
       151
       152
       153
       154
       155
       156
       157
       158
       159
       160
       161
       162
       163
       164
       165
       166
       167
       168
       169
       170
       171
       172
       173
       174
       175
       176
       177
       178
       179
       180
       181
       182
       183
       184
       185
       186
       187
       188
       189
       190
       191
       192
       193
       194
       195
       196
       197
       198
       199
       200
       201
       202
       203
       204
       205
       206
       207
       208
       209
       210
       211
       212
       213
       214
       215
       216
       217
       218
       219
       220
       221
       222
       223
       224
       225
       226
       227
       228
       229
       230
       231
       232
       233
       234
       235
       236
       237
       238
       239
       240
       241
       242
       243
       244
       245
       246
       247
       248
       249
       250
       251
       252
       253
       254
       255
       256
       257
       258
       259
       260
       261
       262
       263
       264
       265
       266
       267
       268
       269
       270
       271
       272
       273
       274
       275
       276
       277
       278
       279
       280
       281
       282
       283
       284
       285
       286
       287
       288
       289
       290
       291
       292
       293
       294
       295
       296
       297
       298
       299
       300
       301
       302
       303
       304
       305
       306
       307
       308
       309
       310
       311
       312
       313
       314
       315
       316
       317
       318
       319
       320
       321
       322
       323
       324
       325
       326
       327
       328
       329
       330
       331
       332
       333
       334
       335
       336
       337
       338
       339
       340
       341
       342
       343
       344
       345
       346
       347
       348
       349
       350
       351
       352
       353
       354
       355
       356
       357
       358
       359
       360
       361
       362
       363
       364
       365
       366
       367
       368
       369
       370
       371
       372
       373
       374
       375
       376
       377
       378
       379
       380
       381
       382
       383
       384
       385
       386
       387
       388
       389
       390
       391
       392
       393
       394
       395
       396
       397
       398
       399
       400
       401
       402
       403
       404
       405
       406
       407
       408
       409
       410
       411
       412
       413
       414
       415
       416
       417
       418
       419
       420
       421
       422
       423
       424
       425
       426
       427
       428
       429
       430
       431
       432
       433
       434
       435
       436
       437
       438
       439
       440
       441
       442
       443
       444
       445
       446
       447
       448
       449
       450
       451
       452
       453
       454
       455
       456
       457
       458
       459
       460
       461
       462
       463
       464
       465
       466
       467
       468
       469
       470
       471
       472
       473
       474
       475
       476
       477
       478
       479
       480
       481
       482
       483
       484
       485
       486
       487
       488
       489
       490
       491
       492
       493
       494
       495
       496
       497
       498
       499
       500
       501
       502
       503
       504
       505
       506
       507
       508
       509
       510
       511
       512
       513
       514
       515
       516
       517
       518
       519
       520
       521
       522
       523
       524
       525
       526
       527
       528
       529
       530
       531
       532
       533
       534
       535
       536
       537
       538
       539
       540
       541
       542
       543
       544
       545
       546
       547
       548
       549
       550
       551
       552
       553
       554
       555
       556
       557
       558
       559
       560
       561
       562
       563
       564
       565
       566
       567
       568
       569
       570
       571
       572
       573
       574
       575
       576
       577
       578
       579
       580
       581
       582
       583
       584
       585
       586
       587
       588
       589
       590
       591
       592
       593
       594
       595
       596
       597
       598
       599
       600
       601
       602
       603
       604
       605
       606
       607
       608
       609
       610
       611
       612
       613
       614
       615
       616
       617
       618
       619
       620
       621
       622
       623
       624
       625
       626
       627
       628
       629
       630
       631
       632
       633
       634
       635
       636
       637
       638
       639
       640
       641
       642
       643
       644
       645
       646
       647
       648
       649
       650
       651
       652
       653
       654
       655
       656
       657
       658
       659
       660
       661
       662
       663
       664
       665
       666
       667
       668
       669
       670
       671
       672
       673
       674
       675
       676
       677
       678
       679
       680
       681
       682
       683
       684
       685
       686
       687
       688
       689
       690
       691
       692
       693
       694
       695
       696
       697
       698
       699
       700
       701
       702
       703
       704
       705
       706
       707
       708
       709
       710
       711
       712
       713
       714
       715
       716
       717
       718
       719
       720
       721
       722
       723
       724
       725
       726
       727
       728
       729
       730
       731
       732
       733
       734
       735
       736
       737
       738
       739
       740
       741
       742
       743
       744
       745
       746
       747
       748
       749
       750
       751
       752
       753
       754
       755
       756
       757
       758
       759
       760
       761
       762
       763
       764
       765
       766
       767
       768
       769
       770
       771
       772
       773
       774
       775
       776
       777
       778
       779
       780
       781
       782
       783
       784
       785
       786
       787
       788
       789
       790
       791
       792
       793
       794
       795
       796
       797
       798
       799
       800
       801
       802
       803
       804
       805
       806
       807
       808
       809
       810
       811
       812
       813
       814
       815
       816
       817
       818
       819
       820
       821
       822
       823
       824
       825
       826
       827
       828
       829
       830
       831
       832
       833
       834
       835
       836
       837
       838
       839
       840
       841
       842
       843
       844
       845
       846
       847
       848
       849
       850
       851
       852
       853
       854
       855
       856
       857
       858
       859
       860
       861
       862
       863
       864
       865
       866
       867
       868
       869
       870
       871
       872
       873
       874
       875
       876
       877
       878
       879
       880
       881
       882
       883
       884
       885
       886
       887
       888
       889
       890
       891
       892
       893
       894
       895
       896
       897
       898
       899
       900
       901
       902
       903
       904
       905
       906
       907
       908
       909
       910
       911
       912
       913
       914
       915
       916
       917
       918
       919
       920
       921
       922
       923
       924
       925
       926
       927
       928
       929
       930
       931
       932
       933
       934
       935
       936
       937
       938
       939
       940
       941
       942
       943
       944
       945
       946
       947
       948
       949
       950
       951
       952
       953
       954
       955
       956
       957
       958
       959
       960
       961
       962
       963
       964
       965
       966
       967
       968
       969
       970
       971
       972
       973
       974
       975
       976
       977
       978
       979
       980
       981
       982
       983
       984
       985
       986
       987
       988
       989
       990
       991
       992
       993
       994
       995
       996
       997
       998
       999
      1000
      1001
      1002
      1003
      1004
      1005
      1006
      1007
      1008
      1009
      1010
      1011
      1012
      1013
      1014
      1015
      1016
      1017
      1018
      1019
      1020
      1021
      1022
      1023
      1024
      1025
      1026
      1027
      1028
      1029
      1030
      1031
      1032
      1033
      1034
      1035
      1036
      1037
      1038
      1039
      1040
      1041
      1042
      1043
      1044
      1045
      1046
      1047
      1048
      1049
      1050
      1051
      1052
      1053
      1054
      1055
      1056
      1057
      1058
      1059
      1060
      1061
      1062
      1063
      1064
      1065
      1066
      1067
      1068
      1069
      1070
      1071
      1072
      1073
      1074
      1075
      1076
      1077
      1078
      1079
      1080
      1081
      1082
      1083
      1084
      1085
      1086
      1087
      1088
      1089
      1090
      1091
      1092
      1093
      1094
      1095
      1096
      1097
      1098
      1099
      1100
      1101
      1102
      1103
      1104
      1105
      1106
      1107
      1108
      1109
      1110
      1111
      1112
      1113
      1114
      1115
      1116
      1117
      1118
      1119
      1120
      1121
      1122
      1123
      1124
      1125
      1126
      1127
      1128
      1129
      1130
      1131
      1132
      1133
      1134
      1135
      1136
      1137
      1138
      1139
      1140
      1141
      1142
      1143
      1144
      1145
      1146
      1147
      1148
      1149
      1150
      1151
      1152
      1153
      1154
      1155
      1156
      1157
      1158
      1159
      1160
      1161
      1162
      1163
      1164
      1165
      1166
      1167
      1168
      1169
      1170
      1171
      1172
      1173
      1174
      1175
      1176
      1177
      1178
      1179
      1180
      1181
      1182
      1183
      1184
      1185
      1186
      1187
      1188
      1189
      1190
      1191
      1192
      1193
      1194
      1195
      1196
      1197
      1198
      1199
      1200
      1201
      1202
      1203
      1204
      1205
      1206
      1207
      1208
      1209
      1210
      1211
      1212
      1213
      1214
      1215
      1216
      1217
      1218
      1219
      1220
      1221
      1222
      1223
      1224
      1225
      1226
      1227
      1228
      1229
      1230
      1231
      1232
      1233
      1234
      1235
      1236
      1237
      1238
      1239
      1240
      1241
      1242
      1243
      1244
      1245
      1246
      1247
      1248
      1249
      1250
      1251
      1252
      1253
      1254
      1255
      1256
      1257
      1258
      1259
      1260
      1261
      1262
      1263
      1264
      1265
      1266
      1267
      1268
      1269
      1270
      1271
      1272
      1273
      1274
      1275
      1276
      1277
      1278
      1279
      1280
      1281
      1282
      1283
      1284
      1285
      1286
      1287
      1288
      1289
      1290
      1291
      1292
      1293
      1294
      1295
      1296
      1297
      1298
      1299
      1300
      1301
      1302
      1303
      1304
      1305
      1306
      1307
      1308
      1309
      1310
      1311
      1312
      1313
      1314
      1315
      1316
      1317
      1318
      1319
      1320
      1321
      1322
      1323
      1324
      1325
      1326
      1327
      1328
      1329
      1330
      1331
      1332
      1333
      1334
      1335
      1336
      1337
      1338
      1339
      1340
      1341
      1342
      1343
      1344
      1345
      1346
      1347
      1348
      1349
      1350
      1351
      1352
      1353
      1354
      1355
      1356
      1357
      1358
      1359
      1360
      1361
      1362
      1363
      1364
      1365
      1366
      1367
      1368
      1369
      1370
      1371
      1372
      1373
      1374
      1375
      1376
      1377
VECTORS desloc          double
   0.00000E+000   0.00000E+000   0.00000E+000
   0.00000E+000   0.00000E+000   0.00000E+000
   0.00000E+000   0.00000E+000   0.00000E+000
   0.00000E+000   0.00000E+000   0.00000E+000
   0.00000E+000   0.00000E+000   0.00000E+000
   0.00000E+000   0.00000E+000   0.00000E+000
   0.00000E+000   0.00000E+000   0.00000E+000
   0.00000E+000   0.00000E+000   0.00000E+000
   0.00000E+000   0.00000E+000   0.00000E+000
   0.00000E+000   0.00000E+000   0.00000E+000
   0.00000E+000   0.00000E+000   0.00000E+000
   0.00000E+000   0.00000E+000   0.00000E+000
   0.00000E+000   0.00000E+000   0.00000E+000
   0.00000E+000   0.00000E+000   0.00000E+000
   0.00000E+000   0.00000E+000   0.00000E+000
   0.00000E+000   0.00000E+000   0.00000E+000
   0.00000E+000   0.00000E+000   0.00000E+000
   0.00000E+000   0.00000E+000   0.00000E+000
   0.00000E+000   0.00000E+000   0.00000E+000
   0.00000E+000   0.00000E+000   0.00000E+000
   0.00000E+000   0.00000E+000   0.00000E+000
   0.00000E+000   0.00000E+000   0.00000E+000
   0.00000E+000   0.00000E+000   0.00000E+000
   0.00000E+000   0.00000E+000   0.00000E+000
   0.00000E+000   0.00000E+000   0.00000E+000
   0.00000E+000   0.00000E+000   0.00000E+000
   0.00000E+000   0.00000E+000   0.00000E+000
   0.00000E+000   0.00000E+000   0.00000E+000
   0.00000E+000   0.00000E+000   0.00000E+000
   0.00000E+000   0.00000E+000   0.00000E+000
   0.00000E+000   0.00000E+000   0.00000E+000
   0.00000E+000   0.00000E+000   0.00000E+000
   0.00000E+000   0.00000E+000   0.00000E+000
   0.00000E+000   0.00000E+000   0.00000E+000
   0.00000E+000   0.00000E+000   0.00000E+000
   0.00000E+000   0.00000E+000   0.00000E+000
   0.00000E+000   0.00000E+000   0.00000E+000
   0.00000E+000   0.00000E+000   0.00000E+000
   0.00000E+000   0.00000E+000   0.00000E+000
   0.00000E+000   0.00000E+000   0.00000E+000
   0.00000E+000   0.00000E+000   0.00000E+000
   0.00000E+000   0.00000E+000   0.00000E+000
   0.00000E+000   0.00000E+000   0.00000E+000
   0.00000E+000   0.00000E+000   0.00000E+000
   0.00000E+000   0.00000E+000   0.00000E+000
   0.00000E+000   0.00000E+000   0.00000E+000
   0.00000E+000   0.00000E+000   0.00000E+000
   0.00000E+000   0.00000E+000   0.00000E+000
   0.00000E+000   0.00000E+000   0.00000E+000
   0.00000E+000   0.00000E+000   0.00000E+000
   0.00000E+000   0.00000E+000   0.00000E+000
   0.00000E+000   0.00000E+000   0.00000E+000
   0.00000E+000   0.00000E+000   0.00000E+000
   0.00000E+000   0.00000E+000   0.00000E+000
   0.00000E+000   0.00000E+000   0.00000E+000
   0.00000E+000   0.00000E+000   0.00000E+000
   0.00000E+000   0.00000E+000   0.00000E+000
   0.00000E+000   0.00000E+000   0.00000E+000
   0.00000E+000   0.00000E+000   0.00000E+000
   0.00000E+000   0.00000E+000   0.00000E+000
   0.00000E+000   0.00000E+000   0.00000E+000
   0.00000E+000   0.00000E+000   0.00000E+000
   0.00000E+000   0.00000E+000   0.00000E+000
   0.00000E+000   0.00000E+000   0.00000E+000
   0.00000E+000   0.00000E+000   0.00000E+000
   0.00000E+000   0.00000E+000   0.00000E+000
   0.00000E+000   0.00000E+000   0.00000E+000
   0.00000E+000   0.00000E+000   0.00000E+000
   0.00000E+000   0.00000E+000   0.00000E+000
   0.00000E+000   0.00000E+000   0.00000E+000
   0.00000E+000   0.00000E+000   0.00000E+000
   0.00000E+000   0.00000E+000   0.00000E+000
   0.00000E+000   0.00000E+000   0.00000E+000
   0.00000E+000   0.00000E+000   0.00000E+000
   0.00000E+000   0.00000E+000   0.00000E+000
   0.00000E+000   0.00000E+000   0.00000E+000
   0.00000E+000   0.00000E+000   0.00000E+000
   0.00000E+000   0.00000E+000   0.00000E+000
   0.00000E+000   0.00000E+000   0.00000E+000
   0.00000E+000   0.00000E+000   0.00000E+000
   0.00000E+000   0.00000E+000   0.00000E+000
   0.00000E+000   0.00000E+000   0.00000E+000
   0.00000E+000   0.00000E+000   0.00000E+000
   0.00000E+000   0.00000E+000   0.00000E+000
   0.00000E+000   0.00000E+000   0.00000E+000
   0.00000E+000   0.00000E+000   0.00000E+000
   0.00000E+000   0.00000E+000   0.00000E+000
   0.00000E+000   0.00000E+000   0.00000E+000
   0.00000E+000   0.00000E+000   0.00000E+000
   0.00000E+000   0.00000E+000   0.00000E+000
   0.00000E+000   0.00000E+000   0.00000E+000
   0.00000E+000   0.00000E+000   0.00000E+000
   0.00000E+000   0.00000E+000   0.00000E+000
   0.00000E+000   0.00000E+000   0.00000E+000
   0.00000E+000   0.00000E+000   0.00000E+000
   0.00000E+000   0.00000E+000   0.00000E+000
   0.00000E+000   0.00000E+000   0.00000E+000
   0.00000E+000   0.00000E+000   0.00000E+000
   0.00000E+000   0.00000E+000   0.00000E+000
   0.00000E+000   0.00000E+000   0.00000E+000
   0.00000E+000   0.00000E+000   0.00000E+000
   0.00000E+000   0.00000E+000   0.00000E+000
   0.00000E+000   0.00000E+000   0.00000E+000
   0.00000E+000   0.00000E+000   0.00000E+000
   0.00000E+000   0.00000E+000   0.00000E+000
   0.00000E+000   0.00000E+000   0.00000E+000
   0.00000E+000   0.00000E+000   0.00000E+000
   0.00000E+000   0.00000E+000   0.00000E+000
   0.00000E+000   0.00000E+000   0.00000E+000
   0.00000E+000   0.00000E+000   0.00000E+000
   0.00000E+000   0.00000E+000   0.00000E+000
   0.00000E+000   0.00000E+000   0.00000E+000
   0.00000E+000   0.00000E+000   0.00000E+000
   0.00000E+000   0.00000E+000   0.00000E+000
   0.00000E+000   0.00000E+000   0.00000E+000
   0.00000E+000   0.00000E+000   0.00000E+000
   0.00000E+000   0.00000E+000   0.00000E+000
   0.00000E+000   0.00000E+000   0.00000E+000
   0.00000E+000   0.00000E+000   0.00000E+000
   0.00000E+000   0.00000E+000   0.00000E+000
   0.00000E+000   0.00000E+000   0.00000E+000
   0.00000E+000   0.00000E+000   0.00000E+000
   0.00000E+000   0.00000E+000   0.00000E+000
   0.00000E+000   0.00000E+000   0.00000E+000
   0.00000E+000   0.00000E+000   0.00000E+000
   0.00000E+000   0.00000E+000   0.00000E+000
   0.00000E+000   0.00000E+000   0.00000E+000
   0.00000E+000   0.00000E+000   0.00000E+000
   0.00000E+000   0.00000E+000   0.00000E+000
   0.00000E+000   0.00000E+000   0.00000E+000
   0.00000E+000   0.00000E+000   0.00000E+000
   0.00000E+000   0.00000E+000   0.00000E+000
   0.00000E+000   0.00000E+000   0.00000E+000
   0.00000E+000   0.00000E+000   0.00000E+000
   0.00000E+000   0.00000E+000   0.00000E+000
   0.00000E+000   0.00000E+000   0.00000E+000
   0.00000E+000   0.00000E+000   0.00000E+000
   0.00000E+000   0.00000E+000   0.00000E+000
   0.00000E+000   0.00000E+000   0.00000E+000
   0.00000E+000   0.00000E+000   0.00000E+000
   0.00000E+000   0.00000E+000   0.00000E+000
   0.00000E+000   0.00000E+000   0.00000E+000
   0.00000E+000   0.00000E+000   0.00000E+000
   0.00000E+000   0.00000E+000   0.00000E+000
   0.00000E+000   0.00000E+000   0.00000E+000
   0.00000E+000   0.00000E+000   0.00000E+000
   0.00000E+000   0.00000E+000   0.00000E+000
   0.00000E+000   0.00000E+000   0.00000E+000
   0.00000E+000   0.00000E+000   0.00000E+000
   0.00000E+000   0.00000E+000   0.00000E+000
   0.00000E+000   0.00000E+000   0.00000E+000
   0.00000E+000   0.00000E+000   0.00000E+000
   0.00000E+000   0.00000E+000   0.00000E+000
   0.00000E+000   0.00000E+000   0.00000E+000
   0.00000E+000   0.00000E+000   0.00000E+000
   0.00000E+000   0.00000E+000   0.00000E+000
   0.00000E+000   0.00000E+000   0.00000E+000
   0.00000E+000   0.00000E+000   0.00000E+000
   0.00000E+000   0.00000E+000   0.00000E+000
   0.00000E+000   0.00000E+000   0.00000E+000
   0.00000E+000   0.00000E+000   0.00000E+000
   0.00000E+000   0.00000E+000   0.00000E+000
   0.00000E+000   0.00000E+000   0.00000E+000
   0.00000E+000   0.00000E+000   0.00000E+000
   0.00000E+000   0.00000E+000   0.00000E+000
   0.00000E+000   0.00000E+000   0.00000E+000
   0.00000E+000   0.00000E+000   0.00000E+000
   0.00000E+000   0.00000E+000   0.00000E+000
   0.00000E+000   0.00000E+000   0.00000E+000
   0.00000E+000   0.00000E+000   0.00000E+000
   0.00000E+000   0.00000E+000   0.00000E+000
   0.00000E+000   0.00000E+000   0.00000E+000
   0.00000E+000   0.00000E+000   0.00000E+000
   0.00000E+000   0.00000E+000   0.00000E+000
   0.00000E+000   0.00000E+000   0.00000E+000
   0.00000E+000   0.00000E+000   0.00000E+000
   0.00000E+000   0.00000E+000   0.00000E+000
   0.00000E+000   0.00000E+000   0.00000E+000
   0.00000E+000   0.00000E+000   0.00000E+000
   0.00000E+000   0.00000E+000   0.00000E+000
   0.00000E+000   0.00000E+000   0.00000E+000
   0.00000E+000   0.00000E+000   0.00000E+000
   0.00000E+000   0.00000E+000   0.00000E+000
   0.00000E+000   0.00000E+000   0.00000E+000
   0.00000E+000   0.00000E+000   0.00000E+000
   0.00000E+000   0.00000E+000   0.00000E+000
   0.00000E+000   0.00000E+000   0.00000E+000
   0.00000E+000   0.00000E+000   0.00000E+000
   0.00000E+000   0.00000E+000   0.00000E+000
   0.00000E+000   0.00000E+000   0.00000E+000
   0.00000E+000   0.00000E+000   0.00000E+000
   0.00000E+000   0.00000E+000   0.00000E+000
   0.00000E+000   0.00000E+000   0.00000E+000
   0.00000E+000   0.00000E+000   0.00000E+000
   0.00000E+000   0.00000E+000   0.00000E+000
   0.00000E+000   0.00000E+000   0.00000E+000
   0.00000E+000   0.00000E+000   0.00000E+000
   0.00000E+000   0.00000E+000   0.00000E+000
   0.00000E+000   0.00000E+000   0.00000E+000
   0.00000E+000   0.00000E+000   0.00000E+000
   0.00000E+000   0.00000E+000   0.00000E+000
   0.00000E+000   0.00000E+000   0.00000E+000
   0.00000E+000   0.00000E+000   0.00000E+000
   0.00000E+000   0.00000E+000   0.00000E+000
   0.00000E+000   0.00000E+000   0.00000E+000
   0.00000E+000   0.00000E+000   0.00000E+000
   0.00000E+000   0.00000E+000   0.00000E+000
   0.00000E+000   0.00000E+000   0.00000E+000
   0.00000E+000   0.00000E+000   0.00000E+000
   0.00000E+000   0.00000E+000   0.00000E+000
   0.00000E+000   0.00000E+000   0.00000E+000
   0.00000E+000   0.00000E+000   0.00000E+000
   0.00000E+000   0.00000E+000   0.00000E+000
   0.00000E+000   0.00000E+000   0.00000E+000
   0.00000E+000   0.00000E+000   0.00000E+000
   0.00000E+000   0.00000E+000   0.00000E+000
   0.00000E+000   0.00000E+000   0.00000E+000
   0.00000E+000   0.00000E+000   0.00000E+000
   0.00000E+000   0.00000E+000   0.00000E+000
   0.00000E+000   0.00000E+000   0.00000E+000
   0.00000E+000   0.00000E+000   0.00000E+000
   0.00000E+000   0.00000E+000   0.00000E+000
   0.00000E+000   0.00000E+000   0.00000E+000
   0.00000E+000   0.00000E+000   0.00000E+000
   0.00000E+000   0.00000E+000   0.00000E+000
   0.00000E+000   0.00000E+000   0.00000E+000
   0.00000E+000   0.00000E+000   0.00000E+000
   0.00000E+000   0.00000E+000   0.00000E+000
   0.00000E+000   0.00000E+000   0.00000E+000
   0.00000E+000   0.00000E+000   0.00000E+000
   0.00000E+000   0.00000E+000   0.00000E+000
   0.00000E+000   0.00000E+000   0.00000E+000
   0.00000E+000   0.00000E+000   0.00000E+000
   0.00000E+000   0.00000E+000   0.00000E+000
   0.00000E+000   0.00000E+000   0.00000E+000
   0.00000E+000   0.00000E+000   0.00000E+000
   0.00000E+000   0.00000E+000   0.00000E+000
   0.00000E+000   0.00000E+000   0.00000E+000
   0.00000E+000   0.00000E+000   0.00000E+000
   0.00000E+000   0.00000E+000   0.00000E+000
   0.00000E+000   0.00000E+000   0.00000E+000
   0.00000E+000   0.00000E+000   0.00000E+000
   0.00000E+000   0.00000E+000   0.00000E+000
   0.00000E+000   0.00000E+000   0.00000E+000
   0.00000E+000   0.00000E+000   0.00000E+000
   0.00000E+000   0.00000E+000   0.00000E+000
   0.00000E+000   0.00000E+000   0.00000E+000
   0.00000E+000   0.00000E+000   0.00000E+000
   0.00000E+000   0.00000E+000   0.00000E+000
   0.00000E+000   0.00000E+000   0.00000E+000
   0.00000E+000   0.00000E+000   0.00000E+000
   0.00000E+000   0.00000E+000   0.00000E+000
   0.00000E+000   0.00000E+000   0.00000E+000
   0.00000E+000   0.00000E+000   0.00000E+000
   0.00000E+000   0.00000E+000   0.00000E+000
   0.00000E+000   0.00000E+000   0.00000E+000
   0.00000E+000   0.00000E+000   0.00000E+000
   0.00000E+000   0.00000E+000   0.00000E+000
   0.00000E+000   0.00000E+000   0.00000E+000
   0.00000E+000   0.00000E+000   0.00000E+000
   0.00000E+000   0.00000E+000   0.00000E+000
   0.00000E+000   0.00000E+000   0.00000E+000
   0.00000E+000   0.00000E+000   0.00000E+000
   0.00000E+000   0.00000E+000   0.00000E+000
   0.00000E+000   0.00000E+000   0.00000E+000
   0.00000E+000   0.00000E+000   0.00000E+000
   0.00000E+000   0.00000E+000   0.00000E+000
   0.00000E+000   0.00000E+000   0.00000E+000
   0.00000E+000   0.00000E+000   0.00000E+000
   0.00000E+000   0.00000E+000   0.00000E+000
   0.00000E+000   0.00000E+000   0.00000E+000
   0.00000E+000   0.00000E+000   0.00000E+000
   0.00000E+000   0.00000E+000   0.00000E+000
   0.00000E+000   0.00000E+000   0.00000E+000
   0.00000E+000   0.00000E+000   0.00000E+000
   0.00000E+000   0.00000E+000   0.00000E+000
   0.00000E+000   0.00000E+000   0.00000E+000
   0.00000E+000   0.00000E+000   0.00000E+000
   0.00000E+000   0.00000E+000   0.00000E+000
   0.00000E+000   0.00000E+000   0.00000E+000
   0.00000E+000   0.00000E+000   0.00000E+000
   0.00000E+000   0.00000E+000   0.00000E+000
   0.00000E+000   0.00000E+000   0.00000E+000
   0.00000E+000   0.00000E+000   0.00000E+000
   0.00000E+000   0.00000E+000   0.00000E+000
   0.00000E+000   0.00000E+000   0.00000E+000
   0.00000E+000   0.00000E+000   0.00000E+000
   0.00000E+000   0.00000E+000   0.00000E+000
   0.00000E+000   0.00000E+000   0.00000E+000
   0.00000E+000   0.00000E+000   0.00000E+000
   0.00000E+000   0.00000E+000   0.00000E+000
   0.00000E+000   0.00000E+000   0.00000E+000
   0.00000E+000   0.00000E+000   0.00000E+000
   0.00000E+000   0.00000E+000   0.00000E+000
   0.00000E+000   0.00000E+000   0.00000E+000
   0.00000E+000   0.00000E+000   0.00000E+000
   0.00000E+000   0.00000E+000   0.00000E+000
   0.00000E+000   0.00000E+000   0.00000E+000
   0.00000E+000   0.00000E+000   0.00000E+000
   0.00000E+000   0.00000E+000   0.00000E+000
   0.00000E+000   0.00000E+000   0.00000E+000
   0.00000E+000   0.00000E+000   0.00000E+000
   0.00000E+000   0.00000E+000   0.00000E+000
   0.00000E+000   0.00000E+000   0.00000E+000
   0.00000E+000   0.00000E+000   0.00000E+000
   0.00000E+000   0.00000E+000   0.00000E+000
   0.00000E+000   0.00000E+000   0.00000E+000
   0.00000E+000   0.00000E+000   0.00000E+000
   0.00000E+000   0.00000E+000   0.00000E+000
   0.00000E+000   0.00000E+000   0.00000E+000
   0.00000E+000   0.00000E+000   0.00000E+000
   0.00000E+000   0.00000E+000   0.00000E+000
   0.00000E+000   0.00000E+000   0.00000E+000
   0.00000E+000   0.00000E+000   0.00000E+000
   0.00000E+000   0.00000E+000   0.00000E+000
   0.00000E+000   0.00000E+000   0.00000E+000
   0.00000E+000   0.00000E+000   0.00000E+000
   0.00000E+000   0.00000E+000   0.00000E+000
   0.00000E+000   0.00000E+000   0.00000E+000
   0.00000E+000   0.00000E+000   0.00000E+000
   0.00000E+000   0.00000E+000   0.00000E+000
   0.00000E+000   0.00000E+000   0.00000E+000
   0.00000E+000   0.00000E+000   0.00000E+000
   0.00000E+000   0.00000E+000   0.00000E+000
   0.00000E+000   0.00000E+000   0.00000E+000
   0.00000E+000   0.00000E+000   0.00000E+000
   0.00000E+000   0.00000E+000   0.00000E+000
   0.00000E+000   0.00000E+000   0.00000E+000
   0.00000E+000   0.00000E+000   0.00000E+000
   0.00000E+000   0.00000E+000   0.00000E+000
   0.00000E+000   0.00000E+000   0.00000E+000
   0.00000E+000   0.00000E+000   0.00000E+000
   0.00000E+000   0.00000E+000   0.00000E+000
   0.00000E+000   0.00000E+000   0.00000E+000
   0.00000E+000   0.00000E+000   0.00000E+000
   0.00000E+000   0.00000E+000   0.00000E+000
   0.00000E+000   0.00000E+000   0.00000E+000
   0.00000E+000   0.00000E+000   0.00000E+000
   0.00000E+000   0.00000E+000   0.00000E+000
   0.00000E+000   0.00000E+000   0.00000E+000
   0.00000E+000   0.00000E+000   0.00000E+000
   0.00000E+000   0.00000E+000   0.00000E+000
   0.00000E+000   0.00000E+000   0.00000E+000
   0.00000E+000   0.00000E+000   0.00000E+000
   0.00000E+000   0.00000E+000   0.00000E+000
   0.00000E+000   0.00000E+000   0.00000E+000
   0.00000E+000   0.00000E+000   0.00000E+000
   0.00000E+000   0.00000E+000   0.00000E+000
   0.00000E+000   0.00000E+000   0.00000E+000
   0.00000E+000   0.00000E+000   0.00000E+000
   0.00000E+000   0.00000E+000   0.00000E+000
   0.00000E+000   0.00000E+000   0.00000E+000
   0.00000E+000   0.00000E+000   0.00000E+000
   0.00000E+000   0.00000E+000   0.00000E+000
   0.00000E+000   0.00000E+000   0.00000E+000
   0.00000E+000   0.00000E+000   0.00000E+000
   0.00000E+000   0.00000E+000   0.00000E+000
   0.00000E+000   0.00000E+000   0.00000E+000
   0.00000E+000   0.00000E+000   0.00000E+000
   0.00000E+000   0.00000E+000   0.00000E+000
   0.00000E+000   0.00000E+000   0.00000E+000
   0.00000E+000   0.00000E+000   0.00000E+000
   0.00000E+000   0.00000E+000   0.00000E+000
   0.00000E+000   0.00000E+000   0.00000E+000
   0.00000E+000   0.00000E+000   0.00000E+000
   0.00000E+000   0.00000E+000   0.00000E+000
   0.00000E+000   0.00000E+000   0.00000E+000
   0.00000E+000   0.00000E+000   0.00000E+000
   0.00000E+000   0.00000E+000   0.00000E+000
   0.00000E+000   0.00000E+000   0.00000E+000
   0.00000E+000   0.00000E+000   0.00000E+000
   0.00000E+000   0.00000E+000   0.00000E+000
   0.00000E+000   0.00000E+000   0.00000E+000
   0.00000E+000   0.00000E+000   0.00000E+000
   0.00000E+000   0.00000E+000   0.00000E+000
   0.00000E+000   0.00000E+000   0.00000E+000
   0.00000E+000   0.00000E+000   0.00000E+000
   0.00000E+000   0.00000E+000   0.00000E+000
   0.00000E+000   0.00000E+000   0.00000E+000
   0.00000E+000   0.00000E+000   0.00000E+000
   0.00000E+000   0.00000E+000   0.00000E+000
   0.00000E+000   0.00000E+000   0.00000E+000
   0.00000E+000   0.00000E+000   0.00000E+000
   0.00000E+000   0.00000E+000   0.00000E+000
   0.00000E+000   0.00000E+000   0.00000E+000
   0.00000E+000   0.00000E+000   0.00000E+000
   0.00000E+000   0.00000E+000   0.00000E+000
   0.00000E+000   0.00000E+000   0.00000E+000
   0.00000E+000   0.00000E+000   0.00000E+000
   0.00000E+000   0.00000E+000   0.00000E+000
   0.00000E+000   0.00000E+000   0.00000E+000
   0.00000E+000   0.00000E+000   0.00000E+000
   0.00000E+000   0.00000E+000   0.00000E+000
   0.00000E+000   0.00000E+000   0.00000E+000
   0.00000E+000   0.00000E+000   0.00000E+000
   0.00000E+000   0.00000E+000   0.00000E+000
   0.00000E+000   0.00000E+000   0.00000E+000
   0.00000E+000   0.00000E+000   0.00000E+000
   0.00000E+000   0.00000E+000   0.00000E+000
   0.00000E+000   0.00000E+000   0.00000E+000
   0.00000E+000   0.00000E+000   0.00000E+000
   0.00000E+000   0.00000E+000   0.00000E+000
   0.00000E+000   0.00000E+000   0.00000E+000
   0.00000E+000   0.00000E+000   0.00000E+000
   0.00000E+000   0.00000E+000   0.00000E+000
   0.00000E+000   0.00000E+000   0.00000E+000
   0.00000E+000   0.00000E+000   0.00000E+000
   0.00000E+000   0.00000E+000   0.00000E+000
   0.00000E+000   0.00000E+000   0.00000E+000
   0.00000E+000   0.00000E+000   0.00000E+000
   0.00000E+000   0.00000E+000   0.00000E+000
   0.00000E+000   0.00000E+000   0.00000E+000
   0.00000E+000   0.00000E+000   0.00000E+000
   0.00000E+000   0.00000E+000   0.00000E+000
   0.00000E+000   0.00000E+000   0.00000E+000
   0.00000E+000   0.00000E+000   0.00000E+000
   0.00000E+000   0.00000E+000   0.00000E+000
   0.00000E+000   0.00000E+000   0.00000E+000
   0.00000E+000   0.00000E+000   0.00000E+000
   0.00000E+000   0.00000E+000   0.00000E+000
   0.00000E+000   0.00000E+000   0.00000E+000
   0.00000E+000   0.00000E+000   0.00000E+000
   0.00000E+000   0.00000E+000   0.00000E+000
   0.00000E+000   0.00000E+000   0.00000E+000
   0.00000E+000   0.00000E+000   0.00000E+000
   0.00000E+000   0.00000E+000   0.00000E+000
   0.00000E+000   0.00000E+000   0.00000E+000
   0.00000E+000   0.00000E+000   0.00000E+000
   0.00000E+000   0.00000E+000   0.00000E+000
   0.00000E+000   0.00000E+000   0.00000E+000
   0.00000E+000   0.00000E+000   0.00000E+000
   0.00000E+000   0.00000E+000   0.00000E+000
   0.00000E+000   0.00000E+000   0.00000E+000
   0.00000E+000   0.00000E+000   0.00000E+000
   0.00000E+000   0.00000E+000   0.00000E+000
   0.00000E+000   0.00000E+000   0.00000E+000
   0.00000E+000   0.00000E+000   0.00000E+000
   0.00000E+000   0.00000E+000   0.00000E+000
   0.00000E+000   0.00000E+000   0.00000E+000
   0.00000E+000   0.00000E+000   0.00000E+000
   0.00000E+000   0.00000E+000   0.00000E+000
   0.00000E+000   0.00000E+000   0.00000E+000
   0.00000E+000   0.00000E+000   0.00000E+000
   0.00000E+000   0.00000E+000   0.00000E+000
   0.00000E+000   0.00000E+000   0.00000E+000
   0.00000E+000   0.00000E+000   0.00000E+000
   0.00000E+000   0.00000E+000   0.00000E+000
   0.00000E+000   0.00000E+000   0.00000E+000
   0.00000E+000   0.00000E+000   0.00000E+000
   0.00000E+000   0.00000E+000   0.00000E+000
   0.00000E+000   0.00000E+000   0.00000E+000
   0.00000E+000   0.00000E+000   0.00000E+000
   0.00000E+000   0.00000E+000   0.00000E+000
   0.00000E+000   0.00000E+000   0.00000E+000
   0.00000E+000   0.00000E+000   0.00000E+000
   0.00000E+000   0.00000E+000   0.00000E+000
   0.00000E+000   0.00000E+000   0.00000E+000
   0.00000E+000   0.00000E+000   0.00000E+000
   0.00000E+000   0.00000E+000   0.00000E+000
   0.00000E+000   0.00000E+000   0.00000E+000
   0.00000E+000   0.00000E+000   0.00000E+000
   0.00000E+000   0.00000E+000   0.00000E+000
   0.00000E+000   0.00000E+000   0.00000E+000
   0.00000E+000   0.00000E+000   0.00000E+000
   0.00000E+000   0.00000E+000   0.00000E+000
   0.00000E+000   0.00000E+000   0.00000E+000
   0.00000E+000   0.00000E+000   0.00000E+000
   0.00000E+000   0.00000E+000   0.00000E+000
   0.00000E+000   0.00000E+000   0.00000E+000
   0.00000E+000   0.00000E+000   0.00000E+000
   0.00000E+000   0.00000E+000   0.00000E+000
   0.00000E+000   0.00000E+000   0.00000E+000
   0.00000E+000   0.00000E+000   0.00000E+000
   0.00000E+000   0.00000E+000   0.00000E+000
   0.00000E+000   0.00000E+000   0.00000E+000
   0.00000E+000   0.00000E+000   0.00000E+000
   0.00000E+000   0.00000E+000   0.00000E+000
   0.00000E+000   0.00000E+000   0.00000E+000
   0.00000E+000   0.00000E+000   0.00000E+000
   0.00000E+000   0.00000E+000   0.00000E+000
   0.00000E+000   0.00000E+000   0.00000E+000
   0.00000E+000   0.00000E+000   0.00000E+000
   0.00000E+000   0.00000E+000   0.00000E+000
   0.00000E+000   0.00000E+000   0.00000E+000
   0.00000E+000   0.00000E+000   0.00000E+000
   0.00000E+000   0.00000E+000   0.00000E+000
   0.00000E+000   0.00000E+000   0.00000E+000
   0.00000E+000   0.00000E+000   0.00000E+000
   0.00000E+000   0.00000E+000   0.00000E+000
   0.00000E+000   0.00000E+000   0.00000E+000
   0.00000E+000   0.00000E+000   0.00000E+000
   0.00000E+000   0.00000E+000   0.00000E+000
   0.00000E+000   0.00000E+000   0.00000E+000
   0.00000E+000   0.00000E+000   0.00000E+000
   0.00000E+000   0.00000E+000   0.00000E+000
   0.00000E+000   0.00000E+000   0.00000E+000
   0.00000E+000   0.00000E+000   0.00000E+000
   0.00000E+000   0.00000E+000   0.00000E+000
   0.00000E+000   0.00000E+000   0.00000E+000
   0.00000E+000   0.00000E+000   0.00000E+000
   0.00000E+000   0.00000E+000   0.00000E+000
   0.00000E+000   0.00000E+000   0.00000E+000
   0.00000E+000   0.00000E+000   0.00000E+000
   0.00000E+000   0.00000E+000   0.00000E+000
   0.00000E+000   0.00000E+000   0.00000E+000
   0.00000E+000   0.00000E+000   0.00000E+000
   0.00000E+000   0.00000E+000   0.00000E+000
   0.00000E+000   0.00000E+000   0.00000E+000
   0.00000E+000   0.00000E+000   0.00000E+000
   0.00000E+000   0.00000E+000   0.00000E+000
   0.00000E+000   0.00000E+000   0.00000E+000
   0.00000E+000   0.00000E+000   0.00000E+000
   0.00000E+000   0.00000E+000   0.00000E+000
   0.00000E+000   0.00000E+000   0.00000E+000
   0.00000E+000   0.00000E+000   0.00000E+000
   0.00000E+000   0.00000E+000   0.00000E+000
   0.00000E+000   0.00000E+000   0.00000E+000
   0.00000E+000   0.00000E+000   0.00000E+000
   0.00000E+000   0.00000E+000   0.00000E+000
   0.00000E+000   0.00000E+000   0.00000E+000
   0.00000E+000   0.00000E+000   0.00000E+000
   0.00000E+000   0.00000E+000   0.00000E+000
   0.00000E+000   0.00000E+000   0.00000E+000
   0.00000E+000   0.00000E+000   0.00000E+000
   0.00000E+000   0.00000E+000   0.00000E+000
   0.00000E+000   0.00000E+000   0.00000E+000
   0.00000E+000   0.00000E+000   0.00000E+000
   0.00000E+000   0.00000E+000   0.00000E+000
   0.00000E+000   0.00000E+000   0.00000E+000
   0.00000E+000   0.00000E+000   0.00000E+000
   0.00000E+000   0.00000E+000   0.00000E+000
   0.00000E+000   0.00000E+000   0.00000E+000
   0.00000E+000   0.00000E+000   0.00000E+000
   0.00000E+000   0.00000E+000   0.00000E+000
   0.00000E+000   0.00000E+000   0.00000E+000
   0.00000E+000   0.00000E+000   0.00000E+000
   0.00000E+000   0.00000E+000   0.00000E+000
   0.00000E+000   0.00000E+000   0.00000E+000
   0.00000E+000   0.00000E+000   0.00000E+000
   0.00000E+000   0.00000E+000   0.00000E+000
   0.00000E+000   0.00000E+000   0.00000E+000
   0.00000E+000   0.00000E+000   0.00000E+000
   0.00000E+000   0.00000E+000   0.00000E+000
   0.00000E+000   0.00000E+000   0.00000E+000
   0.00000E+000   0.00000E+000   0.00000E+000
   0.00000E+000   0.00000E+000   0.00000E+000
   0.00000E+000   0.00000E+000   0.00000E+000
   0.00000E+000   0.00000E+000   0.00000E+000
   0.00000E+000   0.00000E+000   0.00000E+000
   0.00000E+000   0.00000E+000   0.00000E+000
   0.00000E+000   0.00000E+000   0.00000E+000
   0.00000E+000   0.00000E+000   0.00000E+000
   0.00000E+000   0.00000E+000   0.00000E+000
   0.00000E+000   0.00000E+000   0.00000E+000
   0.00000E+000   0.00000E+000   0.00000E+000
   0.00000E+000   0.00000E+000   0.00000E+000
   0.00000E+000   0.00000E+000   0.00000E+000
   0.00000E+000   0.00000E+000   0.00000E+000
   0.00000E+000   0.00000E+000   0.00000E+000
   0.00000E+000   0.00000E+000   0.00000E+000
   0.00000E+000   0.00000E+000   0.00000E+000
   0.00000E+000   0.00000E+000   0.00000E+000
   0.00000E+000   0.00000E+000   0.00000E+000
   0.00000E+000   0.00000E+000   0.00000E+000
   0.00000E+000   0.00000E+000   0.00000E+000
   0.00000E+000   0.00000E+000   0.00000E+000
   0.00000E+000   0.00000E+000   0.00000E+000
   0.00000E+000   0.00000E+000   0.00000E+000
   0.00000E+000   0.00000E+000   0.00000E+000
   0.00000E+000   0.00000E+000   0.00000E+000
   0.00000E+000   0.00000E+000   0.00000E+000
   0.00000E+000   0.00000E+000   0.00000E+000
   0.00000E+000   0.00000E+000   0.00000E+000
   0.00000E+000   0.00000E+000   0.00000E+000
   0.00000E+000   0.00000E+000   0.00000E+000
   0.00000E+000   0.00000E+000   0.00000E+000
   0.00000E+000   0.00000E+000   0.00000E+000
   0.00000E+000   0.00000E+000   0.00000E+000
   0.00000E+000   0.00000E+000   0.00000E+000
   0.00000E+000   0.00000E+000   0.00000E+000
   0.00000E+000   0.00000E+000   0.00000E+000
   0.00000E+000   0.00000E+000   0.00000E+000
   0.00000E+000   0.00000E+000   0.00000E+000
   0.00000E+000   0.00000E+000   0.00000E+000
   0.00000E+000   0.00000E+000   0.00000E+000
   0.00000E+000   0.00000E+000   0.00000E+000
   0.00000E+000   0.00000E+000   0.00000E+000
   0.00000E+000   0.00000E+000   0.00000E+000
   0.00000E+000   0.00000E+000   0.00000E+000
   0.00000E+000   0.00000E+000   0.00000E+000
   0.00000E+000   0.00000E+000   0.00000E+000
   0.00000E+000   0.00000E+000   0.00000E+000
   0.00000E+000   0.00000E+000   0.00000E+000
   0.00000E+000   0.00000E+000   0.00000E+000
   0.00000E+000   0.00000E+000   0.00000E+000
   0.00000E+000   0.00000E+000   0.00000E+000
   0.00000E+000   0.00000E+000   0.00000E+000
   0.00000E+000   0.00000E+000   0.00000E+000
   0.00000E+000   0.00000E+000   0.00000E+000
   0.00000E+000   0.00000E+000   0.00000E+000
   0.00000E+000   0.00000E+000   0.00000E+000
   0.00000E+000   0.00000E+000   0.00000E+000
   0.00000E+000   0.00000E+000   0.00000E+000
   0.00000E+000   0.00000E+000   0.00000E+000
   0.00000E+000   0.00000E+000   0.00000E+000
   0.00000E+000   0.00000E+000   0.00000E+000
   0.00000E+000   0.00000E+000   0.00000E+000
   0.00000E+000   0.00000E+000   0.00000E+000
   0.00000E+000   0.00000E+000   0.00000E+000
   0.00000E+000   0.00000E+000   0.00000E+000
   0.00000E+000   0.00000E+000   0.00000E+000
   0.00000E+000   0.00000E+000   0.00000E+000
   0.00000E+000   0.00000E+000   0.00000E+000
   0.00000E+000   0.00000E+000   0.00000E+000
   0.00000E+000   0.00000E+000   0.00000E+000
   0.00000E+000   0.00000E+000   0.00000E+000
   0.00000E+000   0.00000E+000   0.00000E+000
   0.00000E+000   0.00000E+000   0.00000E+000
   0.00000E+000   0.00000E+000   0.00000E+000
   0.00000E+000   0.00000E+000   0.00000E+000
   0.00000E+000   0.00000E+000   0.00000E+000
   0.00000E+000   0.00000E+000   0.00000E+000
   0.00000E+000   0.00000E+000   0.00000E+000
   0.00000E+000   0.00000E+000   0.00000E+000
   0.00000E+000   0.00000E+000   0.00000E+000
   0.00000E+000   0.00000E+000   0.00000E+000
   0.00000E+000   0.00000E+000   0.00000E+000
   0.00000E+000   0.00000E+000   0.00000E+000
   0.00000E+000   0.00000E+000   0.00000E+000
   0.00000E+000   0.00000E+000   0.00000E+000
   0.00000E+000   0.00000E+000   0.00000E+000
   0.00000E+000   0.00000E+000   0.00000E+000
   0.00000E+000   0.00000E+000   0.00000E+000
   0.00000E+000   0.00000E+000   0.00000E+000
   0.00000E+000   0.00000E+000   0.00000E+000
   0.00000E+000   0.00000E+000   0.00000E+000
   0.00000E+000   0.00000E+000   0.00000E+000
   0.00000E+000   0.00000E+000   0.00000E+000
   0.00000E+000   0.00000E+000   0.00000E+000
   0.00000E+000   0.00000E+000   0.00000E+000
   0.00000E+000   0.00000E+000   0.00000E+000
   0.00000E+000   0.00000E+000   0.00000E+000
   0.00000E+000   0.00000E+000   0.00000E+000
   0.00000E+000   0.00000E+000   0.00000E+000
   0.00000E+000   0.00000E+000   0.00000E+000
   0.00000E+000   0.00000E+000   0.00000E+000
   0.00000E+000   0.00000E+000   0.00000E+000
   0.00000E+000   0.00000E+000   0.00000E+000
   0.00000E+000   0.00000E+000   0.00000E+000
   0.00000E+000   0.00000E+000   0.00000E+000
   0.00000E+000   0.00000E+000   0.00000E+000
   0.00000E+000   0.00000E+000   0.00000E+000
   0.00000E+000   0.00000E+000   0.00000E+000
   0.00000E+000   0.00000E+000   0.00000E+000
   0.00000E+000   0.00000E+000   0.00000E+000
   0.00000E+000   0.00000E+000   0.00000E+000
   0.00000E+000   0.00000E+000   0.00000E+000
   0.00000E+000   0.00000E+000   0.00000E+000
   0.00000E+000   0.00000E+000   0.00000E+000
   0.00000E+000   0.00000E+000   0.00000E+000
   0.00000E+000   0.00000E+000   0.00000E+000
   0.00000E+000   0.00000E+000   0.00000E+000
   0.00000E+000   0.00000E+000   0.00000E+000
   0.00000E+000   0.00000E+000   0.00000E+000
   0.00000E+000   0.00000E+000   0.00000E+000
   0.00000E+000   0.00000E+000   0.00000E+000
   0.00000E+000   0.00000E+000   0.00000E+000
   0.00000E+000   0.00000E+000   0.00000E+000
   0.00000E+000   0.00000E+000   0.00000E+000
   0.00000E+000   0.00000E+000   0.00000E+000
   0.00000E+000   0.00000E+000   0.00000E+000
   0.00000E+000   0.00000E+000   0.00000E+000
   0.00000E+000   0.00000E+000   0.00000E+000
   0.00000E+000   0.00000E+000   0.00000E+000
   0.00000E+000   0.00000E+000   0.00000E+000
   0.00000E+000   0.00000E+000   0.00000E+000
   0.00000E+000   0.00000E+000   0.00000E+000
   0.00000E+000   0.00000E+000   0.00000E+000
   0.00000E+000   0.00000E+000   0.00000E+000
   0.00000E+000   0.00000E+000   0.00000E+000
   0.00000E+000   0.00000E+000   0.00000E+000
   0.00000E+000   0.00000E+000   0.00000E+000
   0.00000E+000   0.00000E+000   0.00000E+000
   0.00000E+000   0.00000E+000   0.00000E+000
   0.00000E+000   0.00000E+000   0.00000E+000
   0.00000E+000   0.00000E+000   0.00000E+000
   0.00000E+000   0.00000E+000   0.00000E+000
   0.00000E+000   0.00000E+000   0.00000E+000
   0.00000E+000   0.00000E+000   0.00000E+000
   0.00000E+000   0.00000E+000   0.00000E+000
   0.00000E+000   0.00000E+000   0.00000E+000
   0.00000E+000   0.00000E+000   0.00000E+000
   0.00000E+000   0.00000E+000   0.00000E+000
   0.00000E+000   0.00000E+000   0.00000E+000
   0.00000E+000   0.00000E+000   0.00000E+000
   0.00000E+000   0.00000E+000   0.00000E+000
   0.00000E+000   0.00000E+000   0.00000E+000
   0.00000E+000   0.00000E+000   0.00000E+000
   0.00000E+000   0.00000E+000   0.00000E+000
   0.00000E+000   0.00000E+000   0.00000E+000
   0.00000E+000   0.00000E+000   0.00000E+000
   0.00000E+000   0.00000E+000   0.00000E+000
   0.00000E+000   0.00000E+000   0.00000E+000
   0.00000E+000   0.00000E+000   0.00000E+000
   0.00000E+000   0.00000E+000   0.00000E+000
   0.00000E+000   0.00000E+000   0.00000E+000
   0.00000E+000   0.00000E+000   0.00000E+000
   0.00000E+000   0.00000E+000   0.00000E+000
   0.00000E+000   0.00000E+000   0.00000E+000
   0.00000E+000   0.00000E+000   0.00000E+000
   0.00000E+000   0.00000E+000   0.00000E+000
   0.00000E+000   0.00000E+000   0.00000E+000
   0.00000E+000   0.00000E+000   0.00000E+000
   0.00000E+000   0.00000E+000   0.00000E+000
   0.00000E+000   0.00000E+000   0.00000E+000
   0.00000E+000   0.00000E+000   0.00000E+000
   0.00000E+000   0.00000E+000   0.00000E+000
   0.00000E+000   0.00000E+000   0.00000E+000
   0.00000E+000   0.00000E+000   0.00000E+000
   0.00000E+000   0.00000E+000   0.00000E+000
   0.00000E+000   0.00000E+000   0.00000E+000
   0.00000E+000   0.00000E+000   0.00000E+000
   0.00000E+000   0.00000E+000   0.00000E+000
   0.00000E+000   0.00000E+000   0.00000E+000
   0.00000E+000   0.00000E+000   0.00000E+000
   0.00000E+000   0.00000E+000   0.00000E+000
   0.00000E+000   0.00000E+000   0.00000E+000
   0.00000E+000   0.00000E+000   0.00000E+000
   0.00000E+000   0.00000E+000   0.00000E+000
   0.00000E+000   0.00000E+000   0.00000E+000
   0.00000E+000   0.00000E+000   0.00000E+000
   0.00000E+000   0.00000E+000   0.00000E+000
   0.00000E+000   0.00000E+000   0.00000E+000
   0.00000E+000   0.00000E+000   0.00000E+000
   0.00000E+000   0.00000E+000   0.00000E+000
   0.00000E+000   0.00000E+000   0.00000E+000
   0.00000E+000   0.00000E+000   0.00000E+000
   0.00000E+000   0.00000E+000   0.00000E+000
   0.00000E+000   0.00000E+000   0.00000E+000
   0.00000E+000   0.00000E+000   0.00000E+000
   0.00000E+000   0.00000E+000   0.00000E+000
   0.00000E+000   0.00000E+000   0.00000E+000
   0.00000E+000   0.00000E+000   0.00000E+000
   0.00000E+000   0.00000E+000   0.00000E+000
   0.00000E+000   0.00000E+000   0.00000E+000
   0.00000E+000   0.00000E+000   0.00000E+000
   0.00000E+000   0.00000E+000   0.00000E+000
   0.00000E+000   0.00000E+000   0.00000E+000
   0.00000E+000   0.00000E+000   0.00000E+000
   0.00000E+000   0.00000E+000   0.00000E+000
   0.00000E+000   0.00000E+000   0.00000E+000
   0.00000E+000   0.00000E+000   0.00000E+000
   0.00000E+000   0.00000E+000   0.00000E+000
   0.00000E+000   0.00000E+000   0.00000E+000
   0.00000E+000   0.00000E+000   0.00000E+000
   0.00000E+000   0.00000E+000   0.00000E+000
   0.00000E+000   0.00000E+000   0.00000E+000
   0.00000E+000   0.00000E+000   0.00000E+000
   0.00000E+000   0.00000E+000   0.00000E+000
   0.00000E+000   0.00000E+000   0.00000E+000
   0.00000E+000   0.00000E+000   0.00000E+000
   0.00000E+000   0.00000E+000   0.00000E+000
   0.00000E+000   0.00000E+000   0.00000E+000
   0.00000E+000   0.00000E+000   0.00000E+000
   0.00000E+000   0.00000E+000   0.00000E+000
   0.00000E+000   0.00000E+000   0.00000E+000
   0.00000E+000   0.00000E+000   0.00000E+000
   0.00000E+000   0.00000E+000   0.00000E+000
   0.00000E+000   0.00000E+000   0.00000E+000
   0.00000E+000   0.00000E+000   0.00000E+000
   0.00000E+000   0.00000E+000   0.00000E+000
   0.00000E+000   0.00000E+000   0.00000E+000
   0.00000E+000   0.00000E+000   0.00000E+000
   0.00000E+000   0.00000E+000   0.00000E+000
   0.00000E+000   0.00000E+000   0.00000E+000
   0.00000E+000   0.00000E+000   0.00000E+000
   0.00000E+000   0.00000E+000   0.00000E+000
   0.00000E+000   0.00000E+000   0.00000E+000
   0.00000E+000   0.00000E+000   0.00000E+000
   0.00000E+000   0.00000E+000   0.00000E+000
   0.00000E+000   0.00000E+000   0.00000E+000
   0.00000E+000   0.00000E+000   0.00000E+000
   0.00000E+000   0.00000E+000   0.00000E+000
   0.00000E+000   0.00000E+000   0.00000E+000
   0.00000E+000   0.00000E+000   0.00000E+000
   0.00000E+000   0.00000E+000   0.00000E+000
   0.00000E+000   0.00000E+000   0.00000E+000
   0.00000E+000   0.00000E+000   0.00000E+000
   0.00000E+000   0.00000E+000   0.00000E+000
   0.00000E+000   0.00000E+000   0.00000E+000
   0.00000E+000   0.00000E+000   0.00000E+000
   0.00000E+000   0.00000E+000   0.00000E+000
   0.00000E+000   0.00000E+000   0.00000E+000
   0.00000E+000   0.00000E+000   0.00000E+000
   0.00000E+000   0.00000E+000   0.00000E+000
   0.00000E+000   0.00000E+000   0.00000E+000
   0.00000E+000   0.00000E+000   0.00000E+000
   0.00000E+000   0.00000E+000   0.00000E+000
   0.00000E+000   0.00000E+000   0.00000E+000
   0.00000E+000   0.00000E+000   0.00000E+000
   0.00000E+000   0.00000E+000   0.00000E+000
   0.00000E+000   0.00000E+000   0.00000E+000
   0.00000E+000   0.00000E+000   0.00000E+000
   0.00000E+000   0.00000E+000   0.00000E+000
   0.00000E+000   0.00000E+000   0.00000E+000
   0.00000E+000   0.00000E+000   0.00000E+000
   0.00000E+000   0.00000E+000   0.00000E+000
   0.00000E+000   0.00000E+000   0.00000E+000
   0.00000E+000   0.00000E+000   0.00000E+000
   0.00000E+000   0.00000E+000   0.00000E+000
   0.00000E+000   0.00000E+000   0.00000E+000
   0.00000E+000   0.00000E+000   0.00000E+000
   0.00000E+000   0.00000E+000   0.00000E+000
   0.00000E+000   0.00000E+000   0.00000E+000
   0.00000E+000   0.00000E+000   0.00000E+000
   0.00000E+000   0.00000E+000   0.00000E+000
   0.00000E+000   0.00000E+000   0.00000E+000
   0.00000E+000   0.00000E+000   0.00000E+000
   0.00000E+000   0.00000E+000   0.00000E+000
   0.00000E+000   0.00000E+000   0.00000E+000
   0.00000E+000   0.00000E+000   0.00000E+000
   0.00000E+000   0.00000E+000   0.00000E+000
   0.00000E+000   0.00000E+000   0.00000E+000
   0.00000E+000   0.00000E+000   0.00000E+000
   0.00000E+000   0.00000E+000   0.00000E+000
   0.00000E+000   0.00000E+000   0.00000E+000
   0.00000E+000   0.00000E+000   0.00000E+000
   0.00000E+000   0.00000E+000   0.00000E+000
   0.00000E+000   0.00000E+000   0.00000E+000
   0.00000E+000   0.00000E+000   0.00000E+000
   0.00000E+000   0.00000E+000   0.00000E+000
   0.00000E+000   0.00000E+000   0.00000E+000
   0.00000E+000   0.00000E+000   0.00000E+000
   0.00000E+000   0.00000E+000   0.00000E+000
   0.00000E+000   0.00000E+000   0.00000E+000
   0.00000E+000   0.00000E+000   0.00000E+000
   0.00000E+000   0.00000E+000   0.00000E+000
   0.00000E+000   0.00000E+000   0.00000E+000
   0.00000E+000   0.00000E+000   0.00000E+000
   0.00000E+000   0.00000E+000   0.00000E+000
   0.00000E+000   0.00000E+000   0.00000E+000
   0.00000E+000   0.00000E+000   0.00000E+000
   0.00000E+000   0.00000E+000   0.00000E+000
   0.00000E+000   0.00000E+000   0.00000E+000
   0.00000E+000   0.00000E+000   0.00000E+000
   0.00000E+000   0.00000E+000   0.00000E+000
   0.00000E+000   0.00000E+000   0.00000E+000
   0.00000E+000   0.00000E+000   0.00000E+000
   0.00000E+000   0.00000E+000   0.00000E+000
   0.00000E+000   0.00000E+000   0.00000E+000
   0.00000E+000   0.00000E+000   0.00000E+000
   0.00000E+000   0.00000E+000   0.00000E+000
   0.00000E+000   0.00000E+000   0.00000E+000
   0.00000E+000   0.00000E+000   0.00000E+000
   0.00000E+000   0.00000E+000   0.00000E+000
   0.00000E+000   0.00000E+000   0.00000E+000
   0.00000E+000   0.00000E+000   0.00000E+000
   0.00000E+000   0.00000E+000   0.00000E+000
   0.00000E+000   0.00000E+000   0.00000E+000
   0.00000E+000   0.00000E+000   0.00000E+000
   0.00000E+000   0.00000E+000   0.00000E+000
   0.00000E+000   0.00000E+000   0.00000E+000
   0.00000E+000   0.00000E+000   0.00000E+000
   0.00000E+000   0.00000E+000   0.00000E+000
   0.00000E+000   0.00000E+000   0.00000E+000
   0.00000E+000   0.00000E+000   0.00000E+000
   0.00000E+000   0.00000E+000   0.00000E+000
   0.00000E+000   0.00000E+000   0.00000E+000
   0.00000E+000   0.00000E+000   0.00000E+000
   0.00000E+000   0.00000E+000   0.00000E+000
   0.00000E+000   0.00000E+000   0.00000E+000
   0.00000E+000   0.00000E+000   0.00000E+000
   0.00000E+000   0.00000E+000   0.00000E+000
   0.00000E+000   0.00000E+000   0.00000E+000
   0.00000E+000   0.00000E+000   0.00000E+000
   0.00000E+000   0.00000E+000   0.00000E+000
   0.00000E+000   0.00000E+000   0.00000E+000
   0.00000E+000   0.00000E+000   0.00000E+000
   0.00000E+000   0.00000E+000   0.00000E+000
   0.00000E+000   0.00000E+000   0.00000E+000
   0.00000E+000   0.00000E+000   0.00000E+000
   0.00000E+000   0.00000E+000   0.00000E+000
   0.00000E+000   0.00000E+000   0.00000E+000
   0.00000E+000   0.00000E+000   0.00000E+000
   0.00000E+000   0.00000E+000   0.00000E+000
   0.00000E+000   0.00000E+000   0.00000E+000
   0.00000E+000   0.00000E+000   0.00000E+000
   0.00000E+000   0.00000E+000   0.00000E+000
   0.00000E+000   0.00000E+000   0.00000E+000
   0.00000E+000   0.00000E+000   0.00000E+000
   0.00000E+000   0.00000E+000   0.00000E+000
   0.00000E+000   0.00000E+000   0.00000E+000
   0.00000E+000   0.00000E+000   0.00000E+000
   0.00000E+000   0.00000E+000   0.00000E+000
   0.00000E+000   0.00000E+000   0.00000E+000
   0.00000E+000   0.00000E+000   0.00000E+000
   0.00000E+000   0.00000E+000   0.00000E+000
   0.00000E+000   0.00000E+000   0.00000E+000
   0.00000E+000   0.00000E+000   0.00000E+000
   0.00000E+000   0.00000E+000   0.00000E+000
   0.00000E+000   0.00000E+000   0.00000E+000
   0.00000E+000   0.00000E+000   0.00000E+000
   0.00000E+000   0.00000E+000   0.00000E+000
   0.00000E+000   0.00000E+000   0.00000E+000
   0.00000E+000   0.00000E+000   0.00000E+000
   0.00000E+000   0.00000E+000   0.00000E+000
   0.00000E+000   0.00000E+000   0.00000E+000
   0.00000E+000   0.00000E+000   0.00000E+000
   0.00000E+000   0.00000E+000   0.00000E+000
   0.00000E+000   0.00000E+000   0.00000E+000
   0.00000E+000   0.00000E+000   0.00000E+000
   0.00000E+000   0.00000E+000   0.00000E+000
   0.00000E+000   0.00000E+000   0.00000E+000
   0.00000E+000   0.00000E+000   0.00000E+000
   0.00000E+000   0.00000E+000   0.00000E+000
   0.00000E+000   0.00000E+000   0.00000E+000
   0.00000E+000   0.00000E+000   0.00000E+000
   0.00000E+000   0.00000E+000   0.00000E+000
   0.00000E+000   0.00000E+000   0.00000E+000
   0.00000E+000   0.00000E+000   0.00000E+000
   0.00000E+000   0.00000E+000   0.00000E+000
   0.00000E+000   0.00000E+000   0.00000E+000
   0.00000E+000   0.00000E+000   0.00000E+000
   0.00000E+000   0.00000E+000   0.00000E+000
   0.00000E+000   0.00000E+000   0.00000E+000
   0.00000E+000   0.00000E+000   0.00000E+000
   0.00000E+000   0.00000E+000   0.00000E+000
   0.00000E+000   0.00000E+000   0.00000E+000
   0.00000E+000   0.00000E+000   0.00000E+000
   0.00000E+000   0.00000E+000   0.00000E+000
   0.00000E+000   0.00000E+000   0.00000E+000
   0.00000E+000   0.00000E+000   0.00000E+000
   0.00000E+000   0.00000E+000   0.00000E+000
   0.00000E+000   0.00000E+000   0.00000E+000
   0.00000E+000   0.00000E+000   0.00000E+000
   0.00000E+000   0.00000E+000   0.00000E+000
   0.00000E+000   0.00000E+000   0.00000E+000
   0.00000E+000   0.00000E+000   0.00000E+000
   0.00000E+000   0.00000E+000   0.00000E+000
   0.00000E+000   0.00000E+000   0.00000E+000
   0.00000E+000   0.00000E+000   0.00000E+000
   0.00000E+000   0.00000E+000   0.00000E+000
   0.00000E+000   0.00000E+000   0.00000E+000
   0.00000E+000   0.00000E+000   0.00000E+000
   0.00000E+000   0.00000E+000   0.00000E+000
   0.00000E+000   0.00000E+000   0.00000E+000
   0.00000E+000   0.00000E+000   0.00000E+000
   0.00000E+000   0.00000E+000   0.00000E+000
   0.00000E+000   0.00000E+000   0.00000E+000
   0.00000E+000   0.00000E+000   0.00000E+000
   0.00000E+000   0.00000E+000   0.00000E+000
   0.00000E+000   0.00000E+000   0.00000E+000
   0.00000E+000   0.00000E+000   0.00000E+000
   0.00000E+000   0.00000E+000   0.00000E+000
   0.00000E+000   0.00000E+000   0.00000E+000
   0.00000E+000   0.00000E+000   0.00000E+000
   0.00000E+000   0.00000E+000   0.00000E+000
   0.00000E+000   0.00000E+000   0.00000E+000
   0.00000E+000   0.00000E+000   0.00000E+000
   0.00000E+000   0.00000E+000   0.00000E+000
   0.00000E+000   0.00000E+000   0.00000E+000
   0.00000E+000   0.00000E+000   0.00000E+000
   0.00000E+000   0.00000E+000   0.00000E+000
   0.00000E+000   0.00000E+000   0.00000E+000
   0.00000E+000   0.00000E+000   0.00000E+000
   0.00000E+000   0.00000E+000   0.00000E+000
   0.00000E+000   0.00000E+000   0.00000E+000
   0.00000E+000   0.00000E+000   0.00000E+000
   0.00000E+000   0.00000E+000   0.00000E+000
   0.00000E+000   0.00000E+000   0.00000E+000
   0.00000E+000   0.00000E+000   0.00000E+000
   0.00000E+000   0.00000E+000   0.00000E+000
   0.00000E+000   0.00000E+000   0.00000E+000
   0.00000E+000   0.00000E+000   0.00000E+000
   0.00000E+000   0.00000E+000   0.00000E+000
   0.00000E+000   0.00000E+000   0.00000E+000
   0.00000E+000   0.00000E+000   0.00000E+000
   0.00000E+000   0.00000E+000   0.00000E+000
   0.00000E+000   0.00000E+000   0.00000E+000
   0.00000E+000   0.00000E+000   0.00000E+000
   0.00000E+000   0.00000E+000   0.00000E+000
   0.00000E+000   0.00000E+000   0.00000E+000
   0.00000E+000   0.00000E+000   0.00000E+000
   0.00000E+000   0.00000E+000   0.00000E+000
   0.00000E+000   0.00000E+000   0.00000E+000
   0.00000E+000   0.00000E+000   0.00000E+000
   0.00000E+000   0.00000E+000   0.00000E+000
   0.00000E+000   0.00000E+000   0.00000E+000
   0.00000E+000   0.00000E+000   0.00000E+000
   0.00000E+000   0.00000E+000   0.00000E+000
   0.00000E+000   0.00000E+000   0.00000E+000
   0.00000E+000   0.00000E+000   0.00000E+000
   0.00000E+000   0.00000E+000   0.00000E+000
   0.00000E+000   0.00000E+000   0.00000E+000
   0.00000E+000   0.00000E+000   0.00000E+000
   0.00000E+000   0.00000E+000   0.00000E+000
   0.00000E+000   0.00000E+000   0.00000E+000
   0.00000E+000   0.00000E+000   0.00000E+000
   0.00000E+000   0.00000E+000   0.00000E+000
   0.00000E+000   0.00000E+000   0.00000E+000
   0.00000E+000   0.00000E+000   0.00000E+000
   0.00000E+000   0.00000E+000   0.00000E+000
   0.00000E+000   0.00000E+000   0.00000E+000
   0.00000E+000   0.00000E+000   0.00000E+000
   0.00000E+000   0.00000E+000   0.00000E+000
   0.00000E+000   0.00000E+000   0.00000E+000
   0.00000E+000   0.00000E+000   0.00000E+000
   0.00000E+000   0.00000E+000   0.00000E+000
   0.00000E+000   0.00000E+000   0.00000E+000
   0.00000E+000   0.00000E+000   0.00000E+000
   0.00000E+000   0.00000E+000   0.00000E+000
   0.00000E+000   0.00000E+000   0.00000E+000
   0.00000E+000   0.00000E+000   0.00000E+000
   0.00000E+000   0.00000E+000   0.00000E+000
   0.00000E+000   0.00000E+000   0.00000E+000
   0.00000E+000   0.00000E+000   0.00000E+000
   0.00000E+000   0.00000E+000   0.00000E+000
   0.00000E+000   0.00000E+000   0.00000E+000
   0.00000E+000   0.00000E+000   0.00000E+000
   0.00000E+000   0.00000E+000   0.00000E+000
   0.00000E+000   0.00000E+000   0.00000E+000
   0.00000E+000   0.00000E+000   0.00000E+000
   0.00000E+000   0.00000E+000   0.00000E+000
   0.00000E+000   0.00000E+000   0.00000E+000
   0.00000E+000   0.00000E+000   0.00000E+000
   0.00000E+000   0.00000E+000   0.00000E+000
   0.00000E+000   0.00000E+000   0.00000E+000
   0.00000E+000   0.00000E+000   0.00000E+000
   0.00000E+000   0.00000E+000   0.00000E+000
   0.00000E+000   0.00000E+000   0.00000E+000
   0.00000E+000   0.00000E+000   0.00000E+000
   0.00000E+000   0.00000E+000   0.00000E+000
   0.00000E+000   0.00000E+000   0.00000E+000
   0.00000E+000   0.00000E+000   0.00000E+000
   0.00000E+000   0.00000E+000   0.00000E+000
   0.00000E+000   0.00000E+000   0.00000E+000
   0.00000E+000   0.00000E+000   0.00000E+000
   0.00000E+000   0.00000E+000   0.00000E+000
   0.00000E+000   0.00000E+000   0.00000E+000
   0.00000E+000   0.00000E+000   0.00000E+000
   0.00000E+000   0.00000E+000   0.00000E+000
   0.00000E+000   0.00000E+000   0.00000E+000
   0.00000E+000   0.00000E+000   0.00000E+000
   0.00000E+000   0.00000E+000   0.00000E+000
   0.00000E+000   0.00000E+000   0.00000E+000
   0.00000E+000   0.00000E+000   0.00000E+000
   0.00000E+000   0.00000E+000   0.00000E+000
   0.00000E+000   0.00000E+000   0.00000E+000
   0.00000E+000   0.00000E+000   0.00000E+000
   0.00000E+000   0.00000E+000   0.00000E+000
   0.00000E+000   0.00000E+000   0.00000E+000
   0.00000E+000   0.00000E+000   0.00000E+000
   0.00000E+000   0.00000E+000   0.00000E+000
   0.00000E+000   0.00000E+000   0.00000E+000
   0.00000E+000   0.00000E+000   0.00000E+000
   0.00000E+000   0.00000E+000   0.00000E+000
   0.00000E+000   0.00000E+000   0.00000E+000
   0.00000E+000   0.00000E+000   0.00000E+000
   0.00000E+000   0.00000E+000   0.00000E+000
   0.00000E+000   0.00000E+000   0.00000E+000
   0.00000E+000   0.00000E+000   0.00000E+000
   0.00000E+000   0.00000E+000   0.00000E+000
   0.00000E+000   0.00000E+000   0.00000E+000
   0.00000E+000   0.00000E+000   0.00000E+000
   0.00000E+000   0.00000E+000   0.00000E+000
   0.00000E+000   0.00000E+000   0.00000E+000
   0.00000E+000   0.00000E+000   0.00000E+000
   0.00000E+000   0.00000E+000   0.00000E+000
   0.00000E+000   0.00000E+000   0.00000E+000
   0.00000E+000   0.00000E+000   0.00000E+000
   0.00000E+000   0.00000E+000   0.00000E+000
   0.00000E+000   0.00000E+000   0.00000E+000
   0.00000E+000   0.00000E+000   0.00000E+000
   0.00000E+000   0.00000E+000   0.00000E+000
   0.00000E+000   0.00000E+000   0.00000E+000
   0.00000E+000   0.00000E+000   0.00000E+000
   0.00000E+000   0.00000E+000   0.00000E+000
   0.00000E+000   0.00000E+000   0.00000E+000
   0.00000E+000   0.00000E+000   0.00000E+000
   0.00000E+000   0.00000E+000   0.00000E+000
   0.00000E+000   0.00000E+000   0.00000E+000
   0.00000E+000   0.00000E+000   0.00000E+000
   0.00000E+000   0.00000E+000   0.00000E+000
   0.00000E+000   0.00000E+000   0.00000E+000
   0.00000E+000   0.00000E+000   0.00000E+000
   0.00000E+000   0.00000E+000   0.00000E+000
   0.00000E+000   0.00000E+000   0.00000E+000
   0.00000E+000   0.00000E+000   0.00000E+000
   0.00000E+000   0.00000E+000   0.00000E+000
   0.00000E+000   0.00000E+000   0.00000E+000
   0.00000E+000   0.00000E+000   0.00000E+000
   0.00000E+000   0.00000E+000   0.00000E+000
   0.00000E+000   0.00000E+000   0.00000E+000
   0.00000E+000   0.00000E+000   0.00000E+000
   0.00000E+000   0.00000E+000   0.00000E+000
   0.00000E+000   0.00000E+000   0.00000E+000
   0.00000E+000   0.00000E+000   0.00000E+000
   0.00000E+000   0.00000E+000   0.00000E+000
   0.00000E+000   0.00000E+000   0.00000E+000
   0.00000E+000   0.00000E+000   0.00000E+000
   0.00000E+000   0.00000E+000   0.00000E+000
   0.00000E+000   0.00000E+000   0.00000E+000
   0.00000E+000   0.00000E+000   0.00000E+000
   0.00000E+000   0.00000E+000   0.00000E+000
   0.00000E+000   0.00000E+000   0.00000E+000
   0.00000E+000   0.00000E+000   0.00000E+000
   0.00000E+000   0.00000E+000   0.00000E+000
   0.00000E+000   0.00000E+000   0.00000E+000
   0.00000E+000   0.00000E+000   0.00000E+000
   0.00000E+000   0.00000E+000   0.00000E+000
   0.00000E+000   0.00000E+000   0.00000E+000
   0.00000E+000   0.00000E+000   0.00000E+000
   0.00000E+000   0.00000E+000   0.00000E+000
   0.00000E+000   0.00000E+000   0.00000E+000
   0.00000E+000   0.00000E+000   0.00000E+000
   0.00000E+000   0.00000E+000   0.00000E+000
   0.00000E+000   0.00000E+000   0.00000E+000
   0.00000E+000   0.00000E+000   0.00000E+000
   0.00000E+000   0.00000E+000   0.00000E+000
   0.00000E+000   0.00000E+000   0.00000E+000
   0.00000E+000   0.00000E+000   0.00000E+000
   0.00000E+000   0.00000E+000   0.00000E+000
   0.00000E+000   0.00000E+000   0.00000E+000
   0.00000E+000   0.00000E+000   0.00000E+000
   0.00000E+000   0.00000E+000   0.00000E+000
   0.00000E+000   0.00000E+000   0.00000E+000
   0.00000E+000   0.00000E+000   0.00000E+000
   0.00000E+000   0.00000E+000   0.00000E+000
   0.00000E+000   0.00000E+000   0.00000E+000
   0.00000E+000   0.00000E+000   0.00000E+000
   0.00000E+000   0.00000E+000   0.00000E+000
   0.00000E+000   0.00000E+000   0.00000E+000
   0.00000E+000   0.00000E+000   0.00000E+000
   0.00000E+000   0.00000E+000   0.00000E+000
   0.00000E+000   0.00000E+000   0.00000E+000
   0.00000E+000   0.00000E+000   0.00000E+000
   0.00000E+000   0.00000E+000   0.00000E+000
   0.00000E+000   0.00000E+000   0.00000E+000
   0.00000E+000   0.00000E+000   0.00000E+000
   0.00000E+000   0.00000E+000   0.00000E+000
   0.00000E+000   0.00000E+000   0.00000E+000
   0.00000E+000   0.00000E+000   0.00000E+000
   0.00000E+000   0.00000E+000   0.00000E+000
   0.00000E+000   0.00000E+000   0.00000E+000
   0.00000E+000   0.00000E+000   0.00000E+000
   0.00000E+000   0.00000E+000   0.00000E+000
   0.00000E+000   0.00000E+000   0.00000E+000
   0.00000E+000   0.00000E+000   0.00000E+000
   0.00000E+000   0.00000E+000   0.00000E+000
   0.00000E+000   0.00000E+000   0.00000E+000
   0.00000E+000   0.00000E+000   0.00000E+000
   0.00000E+000   0.00000E+000   0.00000E+000
   0.00000E+000   0.00000E+000   0.00000E+000
   0.00000E+000   0.00000E+000   0.00000E+000
   0.00000E+000   0.00000E+000   0.00000E+000
   0.00000E+000   0.00000E+000   0.00000E+000
   0.00000E+000   0.00000E+000   0.00000E+000
   0.00000E+000   0.00000E+000   0.00000E+000
   0.00000E+000   0.00000E+000   0.00000E+000
   0.00000E+000   0.00000E+000   0.00000E+000
   0.00000E+000   0.00000E+000   0.00000E+000
   0.00000E+000   0.00000E+000   0.00000E+000
   0.00000E+000   0.00000E+000   0.00000E+000
   0.00000E+000   0.00000E+000   0.00000E+000
   0.00000E+000   0.00000E+000   0.00000E+000
   0.00000E+000   0.00000E+000   0.00000E+000
   0.00000E+000   0.00000E+000   0.00000E+000
   0.00000E+000   0.00000E+000   0.00000E+000
   0.00000E+000   0.00000E+000   0.00000E+000
   0.00000E+000   0.00000E+000   0.00000E+000
   0.00000E+000   0.00000E+000   0.00000E+000
   0.00000E+000   0.00000E+000   0.00000E+000
   0.00000E+000   0.00000E+000   0.00000E+000
   0.00000E+000   0.00000E+000   0.00000E+000
   0.00000E+000   0.00000E+000   0.00000E+000
   0.00000E+000   0.00000E+000   0.00000E+000
   0.00000E+000   0.00000E+000   0.00000E+000
   0.00000E+000   0.00000E+000   0.00000E+000
   0.00000E+000   0.00000E+000   0.00000E+000
   0.00000E+000   0.00000E+000   0.00000E+000
   0.00000E+000   0.00000E+000   0.00000E+000
   0.00000E+000   0.00000E+000   0.00000E+000
   0.00000E+000   0.00000E+000   0.00000E+000
   0.00000E+000   0.00000E+000   0.00000E+000
   0.00000E+000   0.00000E+000   0.00000E+000
   0.00000E+000   0.00000E+000   0.00000E+000
   0.00000E+000   0.00000E+000   0.00000E+000
   0.00000E+000   0.00000E+000   0.00000E+000
   0.00000E+000   0.00000E+000   0.00000E+000
   0.00000E+000   0.00000E+000   0.00000E+000
   0.00000E+000   0.00000E+000   0.00000E+000
   0.00000E+000   0.00000E+000   0.00000E+000
   0.00000E+000   0.00000E+000   0.00000E+000
   0.00000E+000   0.00000E+000   0.00000E+000
   0.00000E+000   0.00000E+000   0.00000E+000
   0.00000E+000   0.00000E+000   0.00000E+000
   0.00000E+000   0.00000E+000   0.00000E+000
   0.00000E+000   0.00000E+000   0.00000E+000
   0.00000E+000   0.00000E+000   0.00000E+000
   0.00000E+000   0.00000E+000   0.00000E+000
   0.00000E+000   0.00000E+000   0.00000E+000
   0.00000E+000   0.00000E+000   0.00000E+000
   0.00000E+000   0.00000E+000   0.00000E+000
   0.00000E+000   0.00000E+000   0.00000E+000
   0.00000E+000   0.00000E+000   0.00000E+000
   0.00000E+000   0.00000E+000   0.00000E+000
   0.00000E+000   0.00000E+000   0.00000E+000
   0.00000E+000   0.00000E+000   0.00000E+000
   0.00000E+000   0.00000E+000   0.00000E+000
   0.00000E+000   0.00000E+000   0.00000E+000
   0.00000E+000   0.00000E+000   0.00000E+000
   0.00000E+000   0.00000E+000   0.00000E+000
   0.00000E+000   0.00000E+000   0.00000E+000
   0.00000E+000   0.00000E+000   0.00000E+000
   0.00000E+000   0.00000E+000   0.00000E+000
   0.00000E+000   0.00000E+000   0.00000E+000
   0.00000E+000   0.00000E+000   0.00000E+000
   0.00000E+000   0.00000E+000   0.00000E+000
   0.00000E+000   0.00000E+000   0.00000E+000
   0.00000E+000   0.00000E+000   0.00000E+000
   0.00000E+000   0.00000E+000   0.00000E+000
   0.00000E+000   0.00000E+000   0.00000E+000
   0.00000E+000   0.00000E+000   0.00000E+000
   0.00000E+000   0.00000E+000   0.00000E+000
   0.00000E+000   0.00000E+000   0.00000E+000
   0.00000E+000   0.00000E+000   0.00000E+000
   0.00000E+000   0.00000E+000   0.00000E+000
   0.00000E+000   0.00000E+000   0.00000E+000
   0.00000E+000   0.00000E+000   0.00000E+000
   0.00000E+000   0.00000E+000   0.00000E+000
   0.00000E+000   0.00000E+000   0.00000E+000
   0.00000E+000   0.00000E+000   0.00000E+000
   0.00000E+000   0.00000E+000   0.00000E+000
   0.00000E+000   0.00000E+000   0.00000E+000
   0.00000E+000   0.00000E+000   0.00000E+000
   0.00000E+000   0.00000E+000   0.00000E+000
   0.00000E+000   0.00000E+000   0.00000E+000
   0.00000E+000   0.00000E+000   0.00000E+000
   0.00000E+000   0.00000E+000   0.00000E+000
   0.00000E+000   0.00000E+000   0.00000E+000
   0.00000E+000   0.00000E+000   0.00000E+000
   0.00000E+000   0.00000E+000   0.00000E+000
   0.00000E+000   0.00000E+000   0.00000E+000
   0.00000E+000   0.00000E+000   0.00000E+000
   0.00000E+000   0.00000E+000   0.00000E+000
   0.00000E+000   0.00000E+000   0.00000E+000
   0.00000E+000   0.00000E+000   0.00000E+000
   0.00000E+000   0.00000E+000   0.00000E+000
   0.00000E+000   0.00000E+000   0.00000E+000
   0.00000E+000   0.00000E+000   0.00000E+000
   0.00000E+000   0.00000E+000   0.00000E+000
   0.00000E+000   0.00000E+000   0.00000E+000
   0.00000E+000   0.00000E+000   0.00000E+000
   0.00000E+000   0.00000E+000   0.00000E+000
   0.00000E+000   0.00000E+000   0.00000E+000
   0.00000E+000   0.00000E+000   0.00000E+000
   0.00000E+000   0.00000E+000   0.00000E+000
   0.00000E+000   0.00000E+000   0.00000E+000
   0.00000E+000   0.00000E+000   0.00000E+000
   0.00000E+000   0.00000E+000   0.00000E+000
   0.00000E+000   0.00000E+000   0.00000E+000
   0.00000E+000   0.00000E+000   0.00000E+000
   0.00000E+000   0.00000E+000   0.00000E+000
   0.00000E+000   0.00000E+000   0.00000E+000
   0.00000E+000   0.00000E+000   0.00000E+000
   0.00000E+000   0.00000E+000   0.00000E+000
   0.00000E+000   0.00000E+000   0.00000E+000
   0.00000E+000   0.00000E+000   0.00000E+000
   0.00000E+000   0.00000E+000   0.00000E+000
   0.00000E+000   0.00000E+000   0.00000E+000
   0.00000E+000   0.00000E+000   0.00000E+000
   0.00000E+000   0.00000E+000   0.00000E+000
   0.00000E+000   0.00000E+000   0.00000E+000
   0.00000E+000   0.00000E+000   0.00000E+000
   0.00000E+000   0.00000E+000   0.00000E+000
   0.00000E+000   0.00000E+000   0.00000E+000
   0.00000E+000   0.00000E+000   0.00000E+000
   0.00000E+000   0.00000E+000   0.00000E+000
   0.00000E+000   0.00000E+000   0.00000E+000
   0.00000E+000   0.00000E+000   0.00000E+000
   0.00000E+000   0.00000E+000   0.00000E+000
   0.00000E+000   0.00000E+000   0.00000E+000
   0.00000E+000   0.00000E+000   0.00000E+000
   0.00000E+000   0.00000E+000   0.00000E+000
   0.00000E+000   0.00000E+000   0.00000E+000
   0.00000E+000   0.00000E+000   0.00000E+000
   0.00000E+000   0.00000E+000   0.00000E+000
   0.00000E+000   0.00000E+000   0.00000E+000
   0.00000E+000   0.00000E+000   0.00000E+000
   0.00000E+000   0.00000E+000   0.00000E+000
   0.00000E+000   0.00000E+000   0.00000E+000
   0.00000E+000   0.00000E+000   0.00000E+000
   0.00000E+000   0.00000E+000   0.00000E+000
   0.00000E+000   0.00000E+000   0.00000E+000
   0.00000E+000   0.00000E+000   0.00000E+000
   0.00000E+000   0.00000E+000   0.00000E+000
   0.00000E+000   0.00000E+000   0.00000E+000
   0.00000E+000   0.00000E+000   0.00000E+000
   0.00000E+000   0.00000E+000   0.00000E+000
   0.00000E+000   0.00000E+000   0.00000E+000
   0.00000E+000   0.00000E+000   0.00000E+000
   0.00000E+000   0.00000E+000   0.00000E+000
   0.00000E+000   0.00000E+000   0.00000E+000
   0.00000E+000   0.00000E+000   0.00000E+000
   0.00000E+000   0.00000E+000   0.00000E+000
   0.00000E+000   0.00000E+000   0.00000E+000
   0.00000E+000   0.00000E+000   0.00000E+000
   0.00000E+000   0.00000E+000   0.00000E+000
   0.00000E+000   0.00000E+000   0.00000E+000
   0.00000E+000   0.00000E+000   0.00000E+000
   0.00000E+000   0.00000E+000   0.00000E+000
   0.00000E+000   0.00000E+000   0.00000E+000
   0.00000E+000   0.00000E+000   0.00000E+000
   0.00000E+000   0.00000E+000   0.00000E+000
   0.00000E+000   0.00000E+000   0.00000E+000
   0.00000E+000   0.00000E+000   0.00000E+000
   0.00000E+000   0.00000E+000   0.00000E+000
   0.00000E+000   0.00000E+000   0.00000E+000
   0.00000E+000   0.00000E+000   0.00000E+000
   0.00000E+000   0.00000E+000   0.00000E+000
   0.00000E+000   0.00000E+000   0.00000E+000
   0.00000E+000   0.00000E+000   0.00000E+000
   0.00000E+000   0.00000E+000   0.00000E+000
   0.00000E+000   0.00000E+000   0.00000E+000
   0.00000E+000   0.00000E+000   0.00000E+000
   0.00000E+000   0.00000E+000   0.00000E+000
   0.00000E+000   0.00000E+000   0.00000E+000
   0.00000E+000   0.00000E+000   0.00000E+000
   0.00000E+000   0.00000E+000   0.00000E+000
   0.00000E+000   0.00000E+000   0.00000E+000
   0.00000E+000   0.00000E+000   0.00000E+000
   0.00000E+000   0.00000E+000   0.00000E+000
   0.00000E+000   0.00000E+000   0.00000E+000
   0.00000E+000   0.00000E+000   0.00000E+000
   0.00000E+000   0.00000E+000   0.00000E+000
   0.00000E+000   0.00000E+000   0.00000E+000
   0.00000E+000   0.00000E+000   0.00000E+000
   0.00000E+000   0.00000E+000   0.00000E+000
   0.00000E+000   0.00000E+000   0.00000E+000
   0.00000E+000   0.00000E+000   0.00000E+000
   0.00000E+000   0.00000E+000   0.00000E+000
   0.00000E+000   0.00000E+000   0.00000E+000
   0.00000E+000   0.00000E+000   0.00000E+000
   0.00000E+000   0.00000E+000   0.00000E+000
   0.00000E+000   0.00000E+000   0.00000E+000
   0.00000E+000   0.00000E+000   0.00000E+000
   0.00000E+000   0.00000E+000   0.00000E+000
   0.00000E+000   0.00000E+000   0.00000E+000
   0.00000E+000   0.00000E+000   0.00000E+000
   0.00000E+000   0.00000E+000   0.00000E+000
   0.00000E+000   0.00000E+000   0.00000E+000
   0.00000E+000   0.00000E+000   0.00000E+000
   0.00000E+000   0.00000E+000   0.00000E+000
   0.00000E+000   0.00000E+000   0.00000E+000
   0.00000E+000   0.00000E+000   0.00000E+000
   0.00000E+000   0.00000E+000   0.00000E+000
   0.00000E+000   0.00000E+000   0.00000E+000
   0.00000E+000   0.00000E+000   0.00000E+000
   0.00000E+000   0.00000E+000   0.00000E+000
   0.00000E+000   0.00000E+000   0.00000E+000
   0.00000E+000   0.00000E+000   0.00000E+000
   0.00000E+000   0.00000E+000   0.00000E+000
   0.00000E+000   0.00000E+000   0.00000E+000
   0.00000E+000   0.00000E+000   0.00000E+000
   0.00000E+000   0.00000E+000   0.00000E+000
   0.00000E+000   0.00000E+000   0.00000E+000
   0.00000E+000   0.00000E+000   0.00000E+000
   0.00000E+000   0.00000E+000   0.00000E+000
   0.00000E+000   0.00000E+000   0.00000E+000
   0.00000E+000   0.00000E+000   0.00000E+000
   0.00000E+000   0.00000E+000   0.00000E+000
   0.00000E+000   0.00000E+000   0.00000E+000
   0.00000E+000   0.00000E+000   0.00000E+000
   0.00000E+000   0.00000E+000   0.00000E+000
   0.00000E+000   0.00000E+000   0.00000E+000
   0.00000E+000   0.00000E+000   0.00000E+000
   0.00000E+000   0.00000E+000   0.00000E+000
SCALARS pressao          double    1
LOOKUP_TABLE default
   0.63920E-002
   0.73470E-002
   0.72680E-002
   0.64910E-002
   0.73090E-002
   0.61910E-002
   0.56280E-002
   0.10000E-001
   0.10000E-001
   0.91190E-002
   0.10000E-001
   0.63720E-002
   0.63540E-002
   0.70650E-002
   0.63980E-002
   0.60000E-002
   0.55240E-002
   0.73580E-002
   0.72750E-002
   0.80900E-002
   0.80310E-002
   0.71520E-002
   0.86900E-002
   0.85790E-002
   0.72210E-002
   0.64510E-002
   0.32900E-002
   0.39280E-002
   0.37610E-002
   0.35430E-002
   0.44070E-002
   0.35020E-002
   0.27040E-002
   0.27810E-002
   0.36090E-002
   0.33730E-002
   0.30260E-002
   0.40990E-002
   0.47810E-002
   0.42520E-002
   0.34940E-002
   0.26980E-002
   0.26720E-002
   0.49730E-002
   0.58090E-002
   0.55630E-002
   0.53070E-002
   0.55580E-002
   0.56650E-002
   0.44640E-002
   0.55420E-002
   0.49680E-002
   0.42290E-002
   0.45560E-002
   0.54390E-002
   0.43860E-002
   0.42510E-002
   0.51260E-002
   0.46740E-002
   0.45150E-002
   0.54160E-002
   0.51940E-002
   0.57340E-002
   0.25900E-002
   0.18700E-002
   0.19940E-002
   0.22640E-002
   0.10030E-002
   0.19840E-002
   0.13170E-002
   0.13730E-002
   0.22170E-002
   0.13330E-002
   0.21550E-002
   0.20440E-002
   0.13590E-002
   0.20360E-002
   0.19820E-002
   0.26830E-002
   0.13230E-002
   0.19940E-002
   0.28160E-002
   0.27730E-002
   0.00000E+000
   0.59800E-003
   0.68500E-003
   0.71600E-003
   0.12880E-002
   0.68900E-003
   0.61600E-003
   0.10490E-002
   0.80900E-003
   0.65400E-003
   0.14620E-002
   0.13460E-002
   0.78880E-002
   0.80180E-002
   0.73260E-002
   0.36600E-002
   0.34350E-002
   0.30670E-002
   0.37690E-002
   0.44010E-002
   0.46060E-002
   0.46230E-002
   0.33460E-002
   0.35990E-002
   0.36990E-002
   0.37450E-002
   0.44810E-002
   0.11760E-002
   0.18290E-002
   0.90400E-003
   0.18140E-002
   0.85240E-002
   0.91910E-002
   0.86720E-002
   0.85800E-002
   0.58190E-002
   0.56650E-002
   0.60350E-002
   0.65120E-002
   0.91130E-002
   0.79960E-002
   0.78680E-002
   0.83800E-002
   0.81210E-002
   0.87910E-002
   0.90950E-002
   0.62930E-002
   0.75740E-002
   0.69680E-002
   0.69810E-002
   0.64010E-002
   0.65770E-002
   0.62880E-002
   0.68590E-002
   0.62460E-002
   0.65610E-002
   0.46590E-002
   0.54230E-002
   0.11820E-002
   0.00000E+000
   0.90100E-003
   0.79300E-002
   0.71390E-002
   0.91770E-002
   0.85290E-002
   0.93140E-002
   0.65840E-002
   0.73530E-002
   0.64410E-002
   0.73480E-002
   0.36250E-002
   0.41670E-002
   0.48860E-002
   0.51920E-002
   0.83570E-002
   0.83880E-002
   0.35170E-002
   0.37650E-002
   0.34590E-002
   0.40570E-002
   0.94490E-002
   0.10000E-001
   0.90890E-002
   0.10000E-001
   0.80760E-002
   0.73700E-002
   0.80120E-002
   0.86370E-002
   0.93410E-002
   0.73860E-002
   0.26550E-002
   0.31520E-002
   0.37390E-002
   0.27100E-002
   0.19330E-002
   0.22980E-002
   0.20340E-002
   0.13140E-002
   0.18160E-002
   0.58000E-003
   0.00000E+000
   0.00000E+000
   0.00000E+000
   0.43460E-002
   0.43880E-002
   0.45350E-002
   0.35990E-002
   0.26940E-002
   0.26960E-002
   0.20070E-002
   0.20130E-002
   0.25160E-002
   0.25810E-002
   0.17390E-002
   0.45450E-002
   0.35510E-002
   0.45040E-002
   0.32580E-002
   0.41270E-002
   0.48570E-002
   0.46380E-002
   0.35810E-002
   0.39700E-002
   0.10000E-001
   0.93940E-002
   0.93100E-002
   0.10000E-001
   0.10000E-001
   0.10000E-001
   0.28770E-002
   0.29150E-002
   0.39040E-002
   0.34080E-002
   0.28700E-002
   0.42940E-002
   0.27760E-002
   0.28580E-002
   0.36380E-002
   0.14210E-002
   0.12690E-002
   0.20180E-002
   0.19860E-002
   0.18040E-002
   0.22060E-002
   0.27260E-002
   0.13360E-002
   0.69600E-003
   0.38680E-002
   0.35330E-002
   0.49360E-002
   0.33090E-002
   0.41500E-002
   0.38270E-002
   0.34310E-002
   0.44060E-002
   0.49090E-002
   0.13340E-002
   0.19210E-002
   0.12820E-002
   0.87000E-003
   0.21050E-002
   0.63600E-003
   0.63500E-003
   0.16450E-002
   0.34410E-002
   0.29420E-002
   0.24980E-002
   0.44970E-002
   0.45700E-002
   0.45830E-002
   0.36520E-002
   0.26990E-002
   0.11330E-002
   0.00000E+000
   0.00000E+000
   0.80100E-003
   0.44080E-002
   0.45350E-002
   0.62100E-003
   0.00000E+000
   0.89700E-003
   0.00000E+000
   0.00000E+000
   0.10440E-002
   0.90100E-003
   0.18060E-002
   0.00000E+000
   0.49880E-002
   0.45070E-002
   0.54780E-002
   0.27270E-002
   0.27290E-002
   0.18100E-002
   0.72110E-002
   0.63560E-002
   0.63880E-002
   0.55890E-002
   0.56080E-002
   0.10030E-002
   0.87100E-003
   0.00000E+000
   0.00000E+000
   0.63150E-002
   0.60300E-003
   0.00000E+000
   0.89900E-003
   0.89900E-003
   0.00000E+000
   0.92150E-002
   0.93570E-002
   0.10000E-001
   0.87940E-002
   0.94130E-002
   0.82200E-002
   0.82060E-002
   0.75700E-003
   0.12140E-002
   0.18150E-002
   0.18410E-002
   0.92600E-003
   0.65600E-003
   0.58700E-003
   0.00000E+000
   0.00000E+000
   0.81200E-002
   0.87550E-002
   0.93690E-002
   0.44540E-002
   0.50080E-002
   0.55610E-002
   0.87160E-002
   0.93770E-002
   0.93230E-002
   0.45030E-002
   0.86600E-003
   0.17260E-002
   0.53540E-002
   0.55660E-002
   0.55740E-002
   0.46400E-002
   0.14380E-002
   0.17240E-002
   0.81370E-002
   0.77340E-002
   0.86600E-003
   0.54920E-002
   0.58350E-002
   0.55400E-003
   0.14780E-002
   0.94900E-003
   0.55480E-002
   0.64460E-002
   0.64760E-002
   0.80840E-002
   0.73460E-002
   0.91340E-002
   0.75650E-002
   0.74590E-002
   0.71040E-002
   0.65230E-002
   0.73030E-002
   0.80440E-002
   0.80310E-002
   0.74410E-002
   0.55570E-002
   0.58240E-002
   0.44500E-002
   0.41720E-002
   0.50630E-002
   0.59640E-002
   0.64200E-002
   0.55570E-002
   0.62850E-002
   0.74250E-002
   0.80530E-002
   0.72360E-002
   0.89250E-002
   0.88020E-002
   0.84710E-002
   0.94120E-002
   0.63950E-002
   0.61760E-002
   0.62800E-002
   0.63850E-002
   0.64010E-002
   0.54790E-002
   0.45550E-002
   0.45600E-002
   0.36590E-002
   0.27350E-002
   0.27280E-002
   0.37990E-002
   0.33000E-002
   0.26480E-002
   0.58100E-003
   0.00000E+000
   0.00000E+000
   0.00000E+000
   0.28350E-002
   0.18960E-002
   0.85100E-003
   0.89900E-003
   0.59500E-003
   0.00000E+000
   0.62400E-003
   0.11370E-002
   0.18230E-002
   0.73930E-002
   0.68780E-002
   0.46600E-002
   0.36960E-002
   0.46140E-002
   0.73910E-002
   0.19240E-002
   0.87650E-002
   0.10000E-001
   0.91260E-002
   0.10000E-001
   0.36550E-002
   0.45950E-002
   0.91980E-002
   0.10000E-001
   0.10000E-001
   0.10000E-001
   0.22040E-002
   0.19230E-002
   0.18250E-002
   0.91300E-002
   0.10000E-001
   0.10000E-001
   0.10000E-001
   0.66230E-002
   0.18040E-002
   0.87010E-002
   0.80350E-002
   0.73600E-002
   0.60280E-002
   0.65570E-002
   0.80390E-002
   0.87480E-002
   0.73640E-002
   0.94240E-002
   0.91310E-002
   0.10000E-001
   0.10000E-001
   0.91270E-002
   0.94360E-002
   0.10000E-001
   0.91310E-002
   0.36530E-002
   0.27260E-002
   0.27250E-002
   0.27860E-002
   0.26230E-002
   0.20290E-002
   0.92400E-003
   0.36540E-002
   0.45900E-002
   0.45940E-002
   0.10000E-002
   0.26540E-002
   0.65190E-002
   0.53980E-002
   0.27280E-002
   0.79990E-002
   0.75380E-002
   0.85380E-002
   0.85160E-002
   0.81700E-002
   0.55160E-002
   0.81640E-002
   0.80000E-002
   0.80780E-002
   0.71850E-002
   0.86930E-002
   0.73290E-002
   0.25920E-002
   0.29110E-002
   0.93680E-002
   0.93270E-002
   0.74290E-002
   0.75070E-002
   0.93540E-002
   0.91350E-002
   0.91340E-002
   0.82740E-002
   0.92560E-002
   0.86500E-002
   0.45990E-002
   0.55010E-002
   0.52310E-002
   0.54680E-002
   0.44860E-002
   0.68500E-003
   0.87590E-002
   0.80360E-002
   0.82500E-002
   0.87020E-002
   0.82490E-002
   0.79980E-002
   0.88420E-002
   0.36700E-002
   0.87120E-002
   0.73540E-002
   0.62980E-002
   0.54980E-002
   0.61070E-002
   0.53910E-002
   0.60060E-002
   0.44890E-002
   0.49350E-002
   0.94280E-002
   0.12930E-002
   0.56090E-002
   0.50000E-002
   0.00000E+000
   0.28330E-002
   0.93770E-002
   0.10000E-001
   0.10000E-001
   0.10880E-002
   0.17450E-002
   0.18520E-002
   0.60400E-003
   0.65200E-003
   0.88330E-002
   0.10000E-001
   0.34530E-002
   0.35000E-002
   0.18070E-002
   0.91210E-002
   0.91910E-002
   0.69200E-003
   0.25940E-002
   0.94490E-002
   0.10000E-001
   0.10000E-001
   0.72260E-002
   0.70000E-002
   0.65090E-002
   0.70390E-002
   0.59690E-002
   0.55020E-002
   0.54140E-002
   0.66770E-002
   0.74110E-002
   0.53200E-002
   0.79400E-003
   0.11560E-002
   0.55160E-002
   0.10000E-001
   0.10000E-001
   0.63900E-003
   0.12150E-002
   0.88890E-002
   0.10000E-001
   0.80700E-002
   0.10000E-001
   0.81800E-002
   0.00000E+000
   0.00000E+000
   0.60860E-002
   0.10000E-001
   0.10000E-001
   0.93460E-002
   0.90000E-002
   0.27490E-002
   0.10000E-001
   0.10000E-001
   0.91300E-002
   0.00000E+000
   0.00000E+000
   0.00000E+000
   0.91290E-002
   0.87100E-003
   0.17310E-002
   0.87150E-002
   0.94180E-002
   0.82680E-002
   0.00000E+000
   0.00000E+000
   0.87900E-003
   0.61760E-002
   0.00000E+000
   0.00000E+000
   0.29610E-002
   0.24620E-002
   0.18360E-002
   0.20000E-002
   0.30000E-002
   0.00000E+000
   0.00000E+000
   0.00000E+000
   0.00000E+000
   0.54370E-002
   0.50000E-002
   0.40000E-002
   0.49650E-002
   0.54750E-002
   0.60000E-002
   0.55130E-002
   0.50000E-002
   0.44180E-002
   0.50080E-002
   0.45030E-002
   0.00000E+000
   0.94500E-003
   0.00000E+000
   0.10000E-002
   0.00000E+000
   0.00000E+000
   0.65100E-003
   0.24510E-002
   0.27510E-002
   0.27220E-002
   0.34770E-002
   0.30000E-002
   0.35380E-002
   0.74930E-002
   0.75740E-002
   0.86600E-002
   0.80820E-002
   0.81810E-002
   0.70000E-002
   0.80000E-002
   0.72520E-002
   0.00000E+000
   0.64130E-002
   0.65300E-002
   0.47910E-002
   0.36450E-002
   0.27630E-002
   0.27730E-002
   0.34910E-002
   0.35570E-002
   0.90570E-002
   0.72720E-002
   0.86800E-003
   0.73620E-002
   0.00000E+000
   0.00000E+000
   0.00000E+000
   0.25910E-002
   0.39910E-002
   0.46190E-002
   0.18520E-002
   0.18370E-002
   0.37480E-002
   0.37360E-002
   0.27830E-002
   0.18220E-002
   0.91330E-002
   0.82790E-002
   0.91880E-002
   0.82010E-002
   0.14550E-002
   0.65100E-002
   0.73340E-002
   0.10000E-001
   0.10000E-001
   0.00000E+000
   0.00000E+000
   0.10000E-001
   0.10000E-001
   0.10000E-001
   0.10000E-001
   0.10000E-001
   0.00000E+000
   0.17280E-002
   0.65420E-002
   0.10000E-001
   0.55130E-002
   0.73490E-002
   0.80180E-002
   0.82460E-002
   0.73470E-002
   0.87270E-002
   0.88360E-002
   0.91000E-002
   0.90610E-002
   0.10000E-001
   0.82440E-002
   0.82330E-002
   0.19200E-002
   0.91600E-003
   0.18140E-002
   0.00000E+000
   0.82370E-002
   0.82230E-002
   0.91240E-002
   0.00000E+000
   0.90300E-003
   0.00000E+000
   0.90700E-003
   0.18410E-002
   0.10000E-001
   0.82540E-002
   0.91800E-003
   0.00000E+000
   0.10000E-001
   0.89900E-003
   0.00000E+000
   0.18060E-002
   0.82540E-002
   0.91290E-002
   0.60300E-003
   0.00000E+000
   0.00000E+000
   0.64360E-002
   0.55080E-002
   0.10000E-001
   0.81650E-002
   0.82690E-002
   0.74070E-002
   0.70670E-002
   0.63530E-002
   0.10000E-001
   0.10000E-001
   0.10000E-001
   0.36460E-002
   0.64390E-002
   0.10000E-001
   0.10000E-001
   0.54580E-002
   0.91110E-002
   0.00000E+000
   0.10000E-001
   0.91320E-002
   0.10000E-001
   0.64200E-002
   0.55730E-002
   0.74030E-002
   0.73320E-002
   0.82510E-002
   0.73050E-002
   0.10000E-001
   0.50050E-002
   0.00000E+000
   0.00000E+000
   0.57800E-002
   0.90000E-002
   0.65330E-002
   0.73790E-002
   0.10000E-001
   0.82610E-002
   0.82500E-002
   0.25690E-002
   0.45220E-002
   0.34570E-002
   0.74840E-002
   0.55240E-002
   0.40000E-002
   0.65060E-002
   0.00000E+000
   0.64230E-002
   0.20000E-002
   0.65490E-002
   0.45580E-002
   0.10000E-001
   0.00000E+000
   0.27710E-002
   0.00000E+000
   0.10000E-001
   0.10000E-001
   0.64400E-002
   0.74170E-002
   0.65440E-002
   0.73420E-002
   0.41800E-002
   0.73820E-002
   0.54980E-002
   0.10000E-001
   0.00000E+000
   0.10000E-001
   0.80790E-002
   0.53230E-002
   0.53820E-002
   0.60940E-002
   0.53780E-002
   0.51920E-002
   0.46670E-002
   0.54630E-002
   0.62030E-002
   0.62610E-002
   0.46290E-002
   0.60710E-002
   0.58850E-002
   0.54660E-002
   0.64930E-002
   0.56090E-002
   0.74220E-002
   0.81620E-002
   0.81360E-002
   0.84990E-002
   0.92530E-002
   0.86570E-002
   0.85900E-002
   0.78370E-002
   0.91520E-002
   0.79150E-002
   0.72630E-002
   0.83600E-002
   0.75520E-002
   0.76300E-002
   0.27030E-002
   0.18590E-002
   0.19580E-002
   0.27880E-002
   0.24110E-002
   0.25940E-002
   0.35470E-002
   0.35820E-002
   0.28460E-002
   0.35020E-002
   0.79560E-002
   0.81860E-002
   0.72650E-002
   0.72510E-002
   0.13180E-002
   0.19540E-002
   0.13210E-002
   0.13400E-002
   0.12660E-002
   0.65500E-003
   0.14070E-002
   0.63600E-003
   0.00000E+000
   0.13210E-002
   0.21040E-002
   0.14630E-002
   0.60100E-003
   0.38370E-002
   0.31210E-002
   0.32060E-002
   0.26300E-002
   0.21400E-002
   0.25660E-002
   0.26370E-002
   0.33160E-002
   0.26040E-002
   0.80080E-002
   0.72270E-002
   0.79710E-002
   0.71090E-002
   0.66980E-002
   0.72070E-002
   0.39890E-002
   0.40920E-002
   0.45290E-002
   0.46210E-002
   0.34240E-002
   0.44490E-002
   0.35200E-002
   0.37200E-002
   0.33950E-002
   0.41530E-002
   0.62300E-003
   0.00000E+000
   0.00000E+000
   0.00000E+000
   0.35420E-002
   0.46790E-002
   0.19180E-002
   0.33790E-002
   0.20370E-002
   0.21390E-002
   0.23390E-002
   0.27000E-002
   0.28230E-002
   0.19700E-002
   0.24970E-002
   0.21510E-002
   0.13790E-002
   0.88320E-002
   0.81710E-002
   0.90960E-002
   0.31880E-002
   0.19440E-002
   0.72550E-002
   0.25520E-002
   0.44080E-002
   0.53900E-002
   0.44760E-002
   0.79900E-002
   0.55760E-002
   0.56120E-002
   0.54650E-002
   0.64010E-002
   0.46860E-002
   0.64170E-002
   0.63620E-002
   0.35490E-002
   0.56880E-002
   0.57110E-002
   0.80080E-002
   0.72730E-002
   0.81900E-002
   0.81860E-002
   0.22890E-002
   0.25640E-002
   0.32180E-002
   0.55130E-002
   0.54300E-002
   0.63540E-002
   0.54420E-002
   0.80500E-003
   0.13540E-002
   0.23570E-002
   0.27090E-002
   0.19460E-002
   0.55800E-002
   0.57260E-002
   0.49350E-002
   0.47820E-002
   0.55100E-002
   0.64020E-002
   0.51390E-002
   0.48290E-002
   0.62830E-002
   0.66110E-002
   0.53400E-002
   0.60520E-002
   0.37580E-002
   0.34990E-002
   0.19110E-002
   0.00000E+000
   0.64150E-002
   0.53030E-002
   0.43320E-002
   0.63650E-002
   0.47910E-002
   0.45210E-002
   0.45420E-002
   0.62760E-002
   0.77400E-002
   0.72930E-002
   0.73490E-002
   0.72010E-002
   0.72240E-002
   0.79730E-002
   0.82040E-002
   0.68340E-002
   0.80790E-002
   0.82280E-002
   0.86700E-002
   0.79820E-002
   0.93080E-002
   0.83180E-002
   0.93410E-002
   0.86100E-002
   0.72620E-002
   0.93220E-002
   0.10000E-001
   0.10000E-001
   0.92020E-002
   0.16290E-002
   0.88330E-002
   0.88190E-002
   0.92790E-002
   0.80440E-002
   0.80170E-002
   0.73220E-002
   0.29010E-002
   0.25710E-002
   0.19260E-002
   0.26430E-002
   0.40640E-002
   0.36850E-002
   0.27300E-002
   0.36160E-002
   0.45460E-002
   0.37430E-002
   0.94200E-002
   0.10000E-001
   0.93740E-002
   0.10000E-001
   0.34720E-002
   0.31520E-002
   0.79790E-002
   0.72740E-002
   0.71280E-002
   0.87040E-002
   0.93460E-002
   0.10000E-001
   0.86780E-002
   0.93310E-002
   0.48820E-002
   0.34380E-002
   0.38150E-002
   0.38640E-002
   0.18680E-002
   0.19640E-002
   0.19190E-002
   0.11480E-002
   0.11690E-002
   0.46270E-002
   0.43950E-002
   0.50300E-002
   0.55820E-002
   0.56010E-002
   0.45250E-002
   0.92420E-002
   0.81590E-002
   0.90740E-002
   0.90820E-002
   0.41270E-002
   0.58210E-002
   0.40740E-002
   0.56150E-002
   0.73080E-002
   0.72710E-002
   0.87600E-002
   0.82470E-002
   0.81940E-002
   0.86620E-002
   0.81940E-002
   0.63320E-002
   0.89900E-003
   0.62260E-002
   0.53860E-002
   0.63040E-002
   0.63300E-002
   0.45000E-002
   0.45900E-002
   0.27000E-002
   0.44520E-002
   0.35540E-002
   0.35240E-002
   0.44660E-002
   0.69000E-002
   0.65000E-002
   0.73130E-002
   0.66340E-002
   0.60800E-003
   0.00000E+000
   0.61500E-003
   0.00000E+000
   0.12780E-002
   0.12270E-002
   0.90000E-003
   0.93900E-003
   0.18190E-002
   0.00000E+000
   0.87000E-003
   0.12980E-002
   0.61560E-002
   0.73220E-002
   0.73200E-002
   0.54800E-002
   0.62040E-002
   0.61410E-002
   0.54710E-002
   0.86600E-002
   0.93400E-002
   0.87310E-002
   0.93830E-002
   0.86520E-002
   0.79260E-002
   0.36810E-002
   0.38190E-002
   0.62000E-003
   0.00000E+000
   0.00000E+000
   0.45630E-002
   0.36020E-002
   0.46310E-002
   0.51020E-002
   0.45290E-002
   0.54890E-002
   0.65200E-003
   0.69030E-002
   0.64100E-003
   0.12670E-002
   0.16200E-002
   0.57900E-003
   0.00000E+000
   0.00000E+000
   0.00000E+000
   0.86900E-003
   0.00000E+000
   0.12320E-002
   0.86900E-003
   0.00000E+000
   0.00000E+000
   0.16310E-002
   0.13140E-002
   0.12740E-002
   0.00000E+000
   0.87300E-003
   0.76720E-002
   0.74640E-002
   0.68130E-002
   0.73280E-002
   0.82050E-002
   0.26950E-002
   0.17940E-002
   0.17770E-002
   0.81720E-002
   0.73950E-002
   0.12100E-002
   0.18130E-002
   0.66100E-003
   0.88400E-003
   0.11040E-002
   0.62200E-003
   0.17800E-002
   0.20160E-002
   0.28490E-002
   0.26510E-002
   0.58500E-003
   0.91900E-003
   0.47660E-002
   0.54430E-002
   0.41700E-002
   0.39080E-002
   0.44590E-002
   0.88170E-002
   0.90840E-002
   0.81630E-002
   0.65840E-002
   0.60630E-002
   0.71410E-002
   0.72050E-002
   0.11250E-002
   0.00000E+000
   0.87400E-003
   0.00000E+000
   0.72830E-002
   0.73080E-002
   0.00000E+000
   0.87890E-002
   0.94110E-002
   0.53630E-002
   0.63630E-002
   0.00000E+000
   0.00000E+000
   0.00000E+000
   0.19190E-002
   0.12880E-002
   0.72100E-003
   0.12820E-002
   0.65400E-003
   0.26300E-002
   0.19710E-002
   0.66800E-003
   0.96300E-003
   0.12360E-002
   0.20460E-002
   0.62230E-002
   0.35110E-002
   0.66700E-003
   0.19150E-002
   0.42940E-002
   0.87100E-003
   0.17510E-002
   0.17500E-002
   0.78990E-002
   0.72850E-002
   0.72100E-002
   0.86200E-002
   0.88200E-002
   0.93930E-002
   0.10000E-001
   0.93220E-002
   0.90990E-002
   0.79640E-002
   0.93530E-002
   0.91960E-002
   0.32900E-002
   0.42280E-002
   0.82690E-002
   0.63460E-002
   0.54100E-002
   0.54060E-002
   0.28870E-002
   0.42660E-002
   0.47330E-002
   0.44510E-002
   0.45020E-002
   0.27110E-002
   0.38240E-002
   0.82450E-002
   0.10000E-001
   0.10000E-001
   0.10000E-001
   0.55640E-002
   0.40850E-002
   0.35120E-002
   0.63470E-002
   0.72720E-002
   0.92990E-002
   0.10000E-001
   0.86610E-002
   0.10000E-001
   0.94180E-002
   0.87860E-002
   0.92360E-002
   0.10000E-001
   0.10000E-001
   0.89780E-002
   0.94310E-002
   0.17980E-002
   0.24460E-002
   0.64100E-003
   0.61300E-003
   0.11970E-002
   0.94000E-002
   0.61580E-002
   0.65910E-002
   0.10000E-001
   0.63410E-002
   0.63450E-002
   0.28180E-002
   0.54050E-002
   0.44840E-002
   0.54010E-002
   0.28160E-002
   0.27360E-002
   0.87160E-002
   0.54250E-002
   0.54170E-002
   0.72720E-002
   0.72370E-002
   0.63550E-002
   0.91010E-002
   0.81960E-002
   0.81930E-002
   0.00000E+000
   0.50290E-002
   0.20170E-002
   0.44840E-002
   0.79960E-002
   0.10000E-001
   0.91010E-002
   0.10000E-001
   0.10000E-001
   0.58860E-002
   0.90990E-002
   0.29400E-002
   0.19220E-002
   0.54100E-003
   0.00000E+000
   0.91100E-003
   0.00000E+000
   0.89700E-002
   0.36470E-002
   0.20340E-002
   0.52110E-002
   0.80260E-002
   0.19520E-002
   0.00000E+000
   0.20700E-002
   0.72740E-002
   0.81960E-002
   0.19140E-002
   0.59820E-002
   0.10000E-001
   0.84120E-002
   0.10000E-001
   0.19610E-002
   0.26380E-002
   0.10000E-001
   0.27740E-002
   0.14970E-002
   0.18300E-002
   0.10000E-001
   0.10000E-001
   0.00000E+000
   0.59800E-003
   0.00000E+000
   0.00000E+000
   0.11610E-002
   0.00000E+000
   0.00000E+000
   0.26470E-002
   0.78400E-003
   0.55200E-003
   0.00000E+000
   0.58170E-002
   0.50730E-002
   0.00000E+000
   0.94300E-003
   0.11650E-002
   0.00000E+000
   0.50900E-003
   0.10960E-002
   0.94910E-002
   0.88560E-002
   0.90550E-002
   0.10000E-001
   0.90510E-002
   0.80770E-002
   0.91450E-002
   0.10000E-001
   0.27510E-002
   0.35800E-002
   0.27480E-002
   0.66280E-002
   0.72490E-002
   0.72780E-002
   0.64620E-002
   0.10000E-001
   0.95610E-002
   0.10000E-001
   0.72270E-002
   0.64430E-002
   0.27280E-002
   0.91030E-002
   0.80800E-002
   0.53810E-002
   0.00000E+000
   0.18350E-002
   0.10000E-001
   0.81480E-002
   0.00000E+000
   0.00000E+000
   0.87000E-003
   0.10000E-001
   0.10000E-001
   0.10000E-001
   0.10000E-001
   0.17670E-002
   0.10000E-001
   0.17540E-002
   0.17630E-002
   0.87600E-003
   0.00000E+000
   0.10000E-001
   0.10000E-001
   0.10000E-001
   0.90930E-002
   0.81590E-002
   0.10000E-001
   0.88900E-003
   0.00000E+000
   0.17460E-002
   0.44870E-002
   0.43910E-002
   0.10000E-001
   0.10000E-001
   0.00000E+000
   0.91010E-002
   0.17460E-002
   0.88100E-003
   0.00000E+000
   0.26180E-002
   0.10000E-001
   0.10000E-001
   0.44920E-002
   0.36150E-002
   0.35990E-002
   0.90970E-002
   0.00000E+000
   0.64560E-002
   0.35640E-002
   0.35610E-002
   0.00000E+000
   0.10000E-001
   0.35870E-002
   0.44270E-002
   0.10000E-001
   0.00000E+000
   0.10000E-001
   0.00000E+000
   0.52090E-002
   0.53400E-002
   0.34670E-002
   0.42200E-002
   0.72290E-002
   0.26210E-002
   0.34900E-002
   0.17500E-002
   0.17490E-002
   0.62640E-002
   0.10000E-001
   0.26660E-002
   0.35770E-002
   0.26680E-002
   0.72170E-002
   0.00000E+000
   0.26520E-002
   0.35590E-002
   0.26530E-002
   0.26580E-002
   0.10000E-001
   0.10000E-001
   0.10000E-001
   0.00000E+000
   0.62520E-002
   0.00000E+000
   0.10000E-001
   0.63480E-002
   0.10000E-001
   0.35600E-002
SCALARS deltaPressao     double    1
LOOKUP_TABLE default
   0.00000E+000
   0.00000E+000
   0.00000E+000
   0.00000E+000
   0.00000E+000
   0.00000E+000
   0.00000E+000
   0.00000E+000
   0.00000E+000
   0.00000E+000
   0.00000E+000
   0.00000E+000
   0.00000E+000
   0.00000E+000
   0.00000E+000
   0.00000E+000
   0.00000E+000
   0.00000E+000
   0.00000E+000
   0.00000E+000
   0.00000E+000
   0.00000E+000
   0.00000E+000
   0.00000E+000
   0.00000E+000
   0.00000E+000
   0.00000E+000
   0.00000E+000
   0.00000E+000
   0.00000E+000
   0.00000E+000
   0.00000E+000
   0.00000E+000
   0.00000E+000
   0.00000E+000
   0.00000E+000
   0.00000E+000
   0.00000E+000
   0.00000E+000
   0.00000E+000
   0.00000E+000
   0.00000E+000
   0.00000E+000
   0.00000E+000
   0.00000E+000
   0.00000E+000
   0.00000E+000
   0.00000E+000
   0.00000E+000
   0.00000E+000
   0.00000E+000
   0.00000E+000
   0.00000E+000
   0.00000E+000
   0.00000E+000
   0.00000E+000
   0.00000E+000
   0.00000E+000
   0.00000E+000
   0.00000E+000
   0.00000E+000
   0.00000E+000
   0.00000E+000
   0.00000E+000
   0.00000E+000
   0.00000E+000
   0.00000E+000
   0.00000E+000
   0.00000E+000
   0.00000E+000
   0.00000E+000
   0.00000E+000
   0.00000E+000
   0.00000E+000
   0.00000E+000
   0.00000E+000
   0.00000E+000
   0.00000E+000
   0.00000E+000
   0.00000E+000
   0.00000E+000
   0.00000E+000
   0.00000E+000
   0.00000E+000
   0.00000E+000
   0.00000E+000
   0.00000E+000
   0.00000E+000
   0.00000E+000
   0.00000E+000
   0.00000E+000
   0.00000E+000
   0.00000E+000
   0.00000E+000
   0.00000E+000
   0.00000E+000
   0.00000E+000
   0.00000E+000
   0.00000E+000
   0.00000E+000
   0.00000E+000
   0.00000E+000
   0.00000E+000
   0.00000E+000
   0.00000E+000
   0.00000E+000
   0.00000E+000
   0.00000E+000
   0.00000E+000
   0.00000E+000
   0.00000E+000
   0.00000E+000
   0.00000E+000
   0.00000E+000
   0.00000E+000
   0.00000E+000
   0.00000E+000
   0.00000E+000
   0.00000E+000
   0.00000E+000
   0.00000E+000
   0.00000E+000
   0.00000E+000
   0.00000E+000
   0.00000E+000
   0.00000E+000
   0.00000E+000
   0.00000E+000
   0.00000E+000
   0.00000E+000
   0.00000E+000
   0.00000E+000
   0.00000E+000
   0.00000E+000
   0.00000E+000
   0.00000E+000
   0.00000E+000
   0.00000E+000
   0.00000E+000
   0.00000E+000
   0.00000E+000
   0.00000E+000
   0.00000E+000
   0.00000E+000
   0.00000E+000
   0.00000E+000
   0.00000E+000
   0.00000E+000
   0.00000E+000
   0.00000E+000
   0.00000E+000
   0.00000E+000
   0.00000E+000
   0.00000E+000
   0.00000E+000
   0.00000E+000
   0.00000E+000
   0.00000E+000
   0.00000E+000
   0.00000E+000
   0.00000E+000
   0.00000E+000
   0.00000E+000
   0.00000E+000
   0.00000E+000
   0.00000E+000
   0.00000E+000
   0.00000E+000
   0.00000E+000
   0.00000E+000
   0.00000E+000
   0.00000E+000
   0.00000E+000
   0.00000E+000
   0.00000E+000
   0.00000E+000
   0.00000E+000
   0.00000E+000
   0.00000E+000
   0.00000E+000
   0.00000E+000
   0.00000E+000
   0.00000E+000
   0.00000E+000
   0.00000E+000
   0.00000E+000
   0.00000E+000
   0.00000E+000
   0.00000E+000
   0.00000E+000
   0.00000E+000
   0.00000E+000
   0.00000E+000
   0.00000E+000
   0.00000E+000
   0.00000E+000
   0.00000E+000
   0.00000E+000
   0.00000E+000
   0.00000E+000
   0.00000E+000
   0.00000E+000
   0.00000E+000
   0.00000E+000
   0.00000E+000
   0.00000E+000
   0.00000E+000
   0.00000E+000
   0.00000E+000
   0.00000E+000
   0.00000E+000
   0.00000E+000
   0.00000E+000
   0.00000E+000
   0.00000E+000
   0.00000E+000
   0.00000E+000
   0.00000E+000
   0.00000E+000
   0.00000E+000
   0.00000E+000
   0.00000E+000
   0.00000E+000
   0.00000E+000
   0.00000E+000
   0.00000E+000
   0.00000E+000
   0.00000E+000
   0.00000E+000
   0.00000E+000
   0.00000E+000
   0.00000E+000
   0.00000E+000
   0.00000E+000
   0.00000E+000
   0.00000E+000
   0.00000E+000
   0.00000E+000
   0.00000E+000
   0.00000E+000
   0.00000E+000
   0.00000E+000
   0.00000E+000
   0.00000E+000
   0.00000E+000
   0.00000E+000
   0.00000E+000
   0.00000E+000
   0.00000E+000
   0.00000E+000
   0.00000E+000
   0.00000E+000
   0.00000E+000
   0.00000E+000
   0.00000E+000
   0.00000E+000
   0.00000E+000
   0.00000E+000
   0.00000E+000
   0.00000E+000
   0.00000E+000
   0.00000E+000
   0.00000E+000
   0.00000E+000
   0.00000E+000
   0.00000E+000
   0.00000E+000
   0.00000E+000
   0.00000E+000
   0.00000E+000
   0.00000E+000
   0.00000E+000
   0.00000E+000
   0.00000E+000
   0.00000E+000
   0.00000E+000
   0.00000E+000
   0.00000E+000
   0.00000E+000
   0.00000E+000
   0.00000E+000
   0.00000E+000
   0.00000E+000
   0.00000E+000
   0.00000E+000
   0.00000E+000
   0.00000E+000
   0.00000E+000
   0.00000E+000
   0.00000E+000
   0.00000E+000
   0.00000E+000
   0.00000E+000
   0.00000E+000
   0.00000E+000
   0.00000E+000
   0.00000E+000
   0.00000E+000
   0.00000E+000
   0.00000E+000
   0.00000E+000
   0.00000E+000
   0.00000E+000
   0.00000E+000
   0.00000E+000
   0.00000E+000
   0.00000E+000
   0.00000E+000
   0.00000E+000
   0.00000E+000
   0.00000E+000
   0.00000E+000
   0.00000E+000
   0.00000E+000
   0.00000E+000
   0.00000E+000
   0.00000E+000
   0.00000E+000
   0.00000E+000
   0.00000E+000
   0.00000E+000
   0.00000E+000
   0.00000E+000
   0.00000E+000
   0.00000E+000
   0.00000E+000
   0.00000E+000
   0.00000E+000
   0.00000E+000
   0.00000E+000
   0.00000E+000
   0.00000E+000
   0.00000E+000
   0.00000E+000
   0.00000E+000
   0.00000E+000
   0.00000E+000
   0.00000E+000
   0.00000E+000
   0.00000E+000
   0.00000E+000
   0.00000E+000
   0.00000E+000
   0.00000E+000
   0.00000E+000
   0.00000E+000
   0.00000E+000
   0.00000E+000
   0.00000E+000
   0.00000E+000
   0.00000E+000
   0.00000E+000
   0.00000E+000
   0.00000E+000
   0.00000E+000
   0.00000E+000
   0.00000E+000
   0.00000E+000
   0.00000E+000
   0.00000E+000
   0.00000E+000
   0.00000E+000
   0.00000E+000
   0.00000E+000
   0.00000E+000
   0.00000E+000
   0.00000E+000
   0.00000E+000
   0.00000E+000
   0.00000E+000
   0.00000E+000
   0.00000E+000
   0.00000E+000
   0.00000E+000
   0.00000E+000
   0.00000E+000
   0.00000E+000
   0.00000E+000
   0.00000E+000
   0.00000E+000
   0.00000E+000
   0.00000E+000
   0.00000E+000
   0.00000E+000
   0.00000E+000
   0.00000E+000
   0.00000E+000
   0.00000E+000
   0.00000E+000
   0.00000E+000
   0.00000E+000
   0.00000E+000
   0.00000E+000
   0.00000E+000
   0.00000E+000
   0.00000E+000
   0.00000E+000
   0.00000E+000
   0.00000E+000
   0.00000E+000
   0.00000E+000
   0.00000E+000
   0.00000E+000
   0.00000E+000
   0.00000E+000
   0.00000E+000
   0.00000E+000
   0.00000E+000
   0.00000E+000
   0.00000E+000
   0.00000E+000
   0.00000E+000
   0.00000E+000
   0.00000E+000
   0.00000E+000
   0.00000E+000
   0.00000E+000
   0.00000E+000
   0.00000E+000
   0.00000E+000
   0.00000E+000
   0.00000E+000
   0.00000E+000
   0.00000E+000
   0.00000E+000
   0.00000E+000
   0.00000E+000
   0.00000E+000
   0.00000E+000
   0.00000E+000
   0.00000E+000
   0.00000E+000
   0.00000E+000
   0.00000E+000
   0.00000E+000
   0.00000E+000
   0.00000E+000
   0.00000E+000
   0.00000E+000
   0.00000E+000
   0.00000E+000
   0.00000E+000
   0.00000E+000
   0.00000E+000
   0.00000E+000
   0.00000E+000
   0.00000E+000
   0.00000E+000
   0.00000E+000
   0.00000E+000
   0.00000E+000
   0.00000E+000
   0.00000E+000
   0.00000E+000
   0.00000E+000
   0.00000E+000
   0.00000E+000
   0.00000E+000
   0.00000E+000
   0.00000E+000
   0.00000E+000
   0.00000E+000
   0.00000E+000
   0.00000E+000
   0.00000E+000
   0.00000E+000
   0.00000E+000
   0.00000E+000
   0.00000E+000
   0.00000E+000
   0.00000E+000
   0.00000E+000
   0.00000E+000
   0.00000E+000
   0.00000E+000
   0.00000E+000
   0.00000E+000
   0.00000E+000
   0.00000E+000
   0.00000E+000
   0.00000E+000
   0.00000E+000
   0.00000E+000
   0.00000E+000
   0.00000E+000
   0.00000E+000
   0.00000E+000
   0.00000E+000
   0.00000E+000
   0.00000E+000
   0.00000E+000
   0.00000E+000
   0.00000E+000
   0.00000E+000
   0.00000E+000
   0.00000E+000
   0.00000E+000
   0.00000E+000
   0.00000E+000
   0.00000E+000
   0.00000E+000
   0.00000E+000
   0.00000E+000
   0.00000E+000
   0.00000E+000
   0.00000E+000
   0.00000E+000
   0.00000E+000
   0.00000E+000
   0.00000E+000
   0.00000E+000
   0.00000E+000
   0.00000E+000
   0.00000E+000
   0.00000E+000
   0.00000E+000
   0.00000E+000
   0.00000E+000
   0.00000E+000
   0.00000E+000
   0.00000E+000
   0.00000E+000
   0.00000E+000
   0.00000E+000
   0.00000E+000
   0.00000E+000
   0.00000E+000
   0.00000E+000
   0.00000E+000
   0.00000E+000
   0.00000E+000
   0.00000E+000
   0.00000E+000
   0.00000E+000
   0.00000E+000
   0.00000E+000
   0.00000E+000
   0.00000E+000
   0.00000E+000
   0.00000E+000
   0.00000E+000
   0.00000E+000
   0.00000E+000
   0.00000E+000
   0.00000E+000
   0.00000E+000
   0.00000E+000
   0.00000E+000
   0.00000E+000
   0.00000E+000
   0.00000E+000
   0.00000E+000
   0.00000E+000
   0.00000E+000
   0.00000E+000
   0.00000E+000
   0.00000E+000
   0.00000E+000
   0.00000E+000
   0.00000E+000
   0.00000E+000
   0.00000E+000
   0.00000E+000
   0.00000E+000
   0.00000E+000
   0.00000E+000
   0.00000E+000
   0.00000E+000
   0.00000E+000
   0.00000E+000
   0.00000E+000
   0.00000E+000
   0.00000E+000
   0.00000E+000
   0.00000E+000
   0.00000E+000
   0.00000E+000
   0.00000E+000
   0.00000E+000
   0.00000E+000
   0.00000E+000
   0.00000E+000
   0.00000E+000
   0.00000E+000
   0.00000E+000
   0.00000E+000
   0.00000E+000
   0.00000E+000
   0.00000E+000
   0.00000E+000
   0.00000E+000
   0.00000E+000
   0.00000E+000
   0.00000E+000
   0.00000E+000
   0.00000E+000
   0.00000E+000
   0.00000E+000
   0.00000E+000
   0.00000E+000
   0.00000E+000
   0.00000E+000
   0.00000E+000
   0.00000E+000
   0.00000E+000
   0.00000E+000
   0.00000E+000
   0.00000E+000
   0.00000E+000
   0.00000E+000
   0.00000E+000
   0.00000E+000
   0.00000E+000
   0.00000E+000
   0.00000E+000
   0.00000E+000
   0.00000E+000
   0.00000E+000
   0.00000E+000
   0.00000E+000
   0.00000E+000
   0.00000E+000
   0.00000E+000
   0.00000E+000
   0.00000E+000
   0.00000E+000
   0.00000E+000
   0.00000E+000
   0.00000E+000
   0.00000E+000
   0.00000E+000
   0.00000E+000
   0.00000E+000
   0.00000E+000
   0.00000E+000
   0.00000E+000
   0.00000E+000
   0.00000E+000
   0.00000E+000
   0.00000E+000
   0.00000E+000
   0.00000E+000
   0.00000E+000
   0.00000E+000
   0.00000E+000
   0.00000E+000
   0.00000E+000
   0.00000E+000
   0.00000E+000
   0.00000E+000
   0.00000E+000
   0.00000E+000
   0.00000E+000
   0.00000E+000
   0.00000E+000
   0.00000E+000
   0.00000E+000
   0.00000E+000
   0.00000E+000
   0.00000E+000
   0.00000E+000
   0.00000E+000
   0.00000E+000
   0.00000E+000
   0.00000E+000
   0.00000E+000
   0.00000E+000
   0.00000E+000
   0.00000E+000
   0.00000E+000
   0.00000E+000
   0.00000E+000
   0.00000E+000
   0.00000E+000
   0.00000E+000
   0.00000E+000
   0.00000E+000
   0.00000E+000
   0.00000E+000
   0.00000E+000
   0.00000E+000
   0.00000E+000
   0.00000E+000
   0.00000E+000
   0.00000E+000
   0.00000E+000
   0.00000E+000
   0.00000E+000
   0.00000E+000
   0.00000E+000
   0.00000E+000
   0.00000E+000
   0.00000E+000
   0.00000E+000
   0.00000E+000
   0.00000E+000
   0.00000E+000
   0.00000E+000
   0.00000E+000
   0.00000E+000
   0.00000E+000
   0.00000E+000
   0.00000E+000
   0.00000E+000
   0.00000E+000
   0.00000E+000
   0.00000E+000
   0.00000E+000
   0.00000E+000
   0.00000E+000
   0.00000E+000
   0.00000E+000
   0.00000E+000
   0.00000E+000
   0.00000E+000
   0.00000E+000
   0.00000E+000
   0.00000E+000
   0.00000E+000
   0.00000E+000
   0.00000E+000
   0.00000E+000
   0.00000E+000
   0.00000E+000
   0.00000E+000
   0.00000E+000
   0.00000E+000
   0.00000E+000
   0.00000E+000
   0.00000E+000
   0.00000E+000
   0.00000E+000
   0.00000E+000
   0.00000E+000
   0.00000E+000
   0.00000E+000
   0.00000E+000
   0.00000E+000
   0.00000E+000
   0.00000E+000
   0.00000E+000
   0.00000E+000
   0.00000E+000
   0.00000E+000
   0.00000E+000
   0.00000E+000
   0.00000E+000
   0.00000E+000
   0.00000E+000
   0.00000E+000
   0.00000E+000
   0.00000E+000
   0.00000E+000
   0.00000E+000
   0.00000E+000
   0.00000E+000
   0.00000E+000
   0.00000E+000
   0.00000E+000
   0.00000E+000
   0.00000E+000
   0.00000E+000
   0.00000E+000
   0.00000E+000
   0.00000E+000
   0.00000E+000
   0.00000E+000
   0.00000E+000
   0.00000E+000
   0.00000E+000
   0.00000E+000
   0.00000E+000
   0.00000E+000
   0.00000E+000
   0.00000E+000
   0.00000E+000
   0.00000E+000
   0.00000E+000
   0.00000E+000
   0.00000E+000
   0.00000E+000
   0.00000E+000
   0.00000E+000
   0.00000E+000
   0.00000E+000
   0.00000E+000
   0.00000E+000
   0.00000E+000
   0.00000E+000
   0.00000E+000
   0.00000E+000
   0.00000E+000
   0.00000E+000
   0.00000E+000
   0.00000E+000
   0.00000E+000
   0.00000E+000
   0.00000E+000
   0.00000E+000
   0.00000E+000
   0.00000E+000
   0.00000E+000
   0.00000E+000
   0.00000E+000
   0.00000E+000
   0.00000E+000
   0.00000E+000
   0.00000E+000
   0.00000E+000
   0.00000E+000
   0.00000E+000
   0.00000E+000
   0.00000E+000
   0.00000E+000
   0.00000E+000
   0.00000E+000
   0.00000E+000
   0.00000E+000
   0.00000E+000
   0.00000E+000
   0.00000E+000
   0.00000E+000
   0.00000E+000
   0.00000E+000
   0.00000E+000
   0.00000E+000
   0.00000E+000
   0.00000E+000
   0.00000E+000
   0.00000E+000
   0.00000E+000
   0.00000E+000
   0.00000E+000
   0.00000E+000
   0.00000E+000
   0.00000E+000
   0.00000E+000
   0.00000E+000
   0.00000E+000
   0.00000E+000
   0.00000E+000
   0.00000E+000
   0.00000E+000
   0.00000E+000
   0.00000E+000
   0.00000E+000
   0.00000E+000
   0.00000E+000
   0.00000E+000
   0.00000E+000
   0.00000E+000
   0.00000E+000
   0.00000E+000
   0.00000E+000
   0.00000E+000
   0.00000E+000
   0.00000E+000
   0.00000E+000
   0.00000E+000
   0.00000E+000
   0.00000E+000
   0.00000E+000
   0.00000E+000
   0.00000E+000
   0.00000E+000
   0.00000E+000
   0.00000E+000
   0.00000E+000
   0.00000E+000
   0.00000E+000
   0.00000E+000
   0.00000E+000
   0.00000E+000
   0.00000E+000
   0.00000E+000
   0.00000E+000
   0.00000E+000
   0.00000E+000
   0.00000E+000
   0.00000E+000
   0.00000E+000
   0.00000E+000
   0.00000E+000
   0.00000E+000
   0.00000E+000
   0.00000E+000
   0.00000E+000
   0.00000E+000
   0.00000E+000
   0.00000E+000
   0.00000E+000
   0.00000E+000
   0.00000E+000
   0.00000E+000
   0.00000E+000
   0.00000E+000
   0.00000E+000
   0.00000E+000
   0.00000E+000
   0.00000E+000
   0.00000E+000
   0.00000E+000
   0.00000E+000
   0.00000E+000
   0.00000E+000
   0.00000E+000
   0.00000E+000
   0.00000E+000
   0.00000E+000
   0.00000E+000
   0.00000E+000
   0.00000E+000
   0.00000E+000
   0.00000E+000
   0.00000E+000
   0.00000E+000
   0.00000E+000
   0.00000E+000
   0.00000E+000
   0.00000E+000
   0.00000E+000
   0.00000E+000
   0.00000E+000
   0.00000E+000
   0.00000E+000
   0.00000E+000
   0.00000E+000
   0.00000E+000
   0.00000E+000
   0.00000E+000
   0.00000E+000
   0.00000E+000
   0.00000E+000
   0.00000E+000
   0.00000E+000
   0.00000E+000
   0.00000E+000
   0.00000E+000
   0.00000E+000
   0.00000E+000
   0.00000E+000
   0.00000E+000
   0.00000E+000
   0.00000E+000
   0.00000E+000
   0.00000E+000
   0.00000E+000
   0.00000E+000
   0.00000E+000
   0.00000E+000
   0.00000E+000
   0.00000E+000
   0.00000E+000
   0.00000E+000
   0.00000E+000
   0.00000E+000
   0.00000E+000
   0.00000E+000
   0.00000E+000
   0.00000E+000
   0.00000E+000
   0.00000E+000
   0.00000E+000
   0.00000E+000
   0.00000E+000
   0.00000E+000
   0.00000E+000
   0.00000E+000
   0.00000E+000
   0.00000E+000
   0.00000E+000
   0.00000E+000
   0.00000E+000
   0.00000E+000
   0.00000E+000
   0.00000E+000
   0.00000E+000
   0.00000E+000
   0.00000E+000
   0.00000E+000
   0.00000E+000
   0.00000E+000
   0.00000E+000
   0.00000E+000
   0.00000E+000
   0.00000E+000
   0.00000E+000
   0.00000E+000
   0.00000E+000
   0.00000E+000
   0.00000E+000
   0.00000E+000
   0.00000E+000
   0.00000E+000
   0.00000E+000
   0.00000E+000
   0.00000E+000
   0.00000E+000
   0.00000E+000
   0.00000E+000
   0.00000E+000
   0.00000E+000
   0.00000E+000
   0.00000E+000
   0.00000E+000
   0.00000E+000
   0.00000E+000
   0.00000E+000
   0.00000E+000
   0.00000E+000
   0.00000E+000
   0.00000E+000
   0.00000E+000
   0.00000E+000
   0.00000E+000
   0.00000E+000
   0.00000E+000
   0.00000E+000
   0.00000E+000
   0.00000E+000
   0.00000E+000
   0.00000E+000
   0.00000E+000
   0.00000E+000
   0.00000E+000
   0.00000E+000
   0.00000E+000
   0.00000E+000
   0.00000E+000
   0.00000E+000
   0.00000E+000
   0.00000E+000
   0.00000E+000
   0.00000E+000
   0.00000E+000
   0.00000E+000
   0.00000E+000
   0.00000E+000
   0.00000E+000
   0.00000E+000
   0.00000E+000
   0.00000E+000
   0.00000E+000
   0.00000E+000
   0.00000E+000
   0.00000E+000
   0.00000E+000
   0.00000E+000
   0.00000E+000
   0.00000E+000
   0.00000E+000
   0.00000E+000
   0.00000E+000
   0.00000E+000
   0.00000E+000
   0.00000E+000
   0.00000E+000
   0.00000E+000
   0.00000E+000
   0.00000E+000
   0.00000E+000
   0.00000E+000
   0.00000E+000
   0.00000E+000
   0.00000E+000
   0.00000E+000
   0.00000E+000
   0.00000E+000
   0.00000E+000
   0.00000E+000
   0.00000E+000
   0.00000E+000
   0.00000E+000
   0.00000E+000
   0.00000E+000
   0.00000E+000
   0.00000E+000
   0.00000E+000
   0.00000E+000
   0.00000E+000
   0.00000E+000
   0.00000E+000
   0.00000E+000
   0.00000E+000
   0.00000E+000
   0.00000E+000
   0.00000E+000
   0.00000E+000
   0.00000E+000
   0.00000E+000
   0.00000E+000
   0.00000E+000
   0.00000E+000
   0.00000E+000
   0.00000E+000
   0.00000E+000
   0.00000E+000
   0.00000E+000
   0.00000E+000
   0.00000E+000
   0.00000E+000
   0.00000E+000
   0.00000E+000
   0.00000E+000
   0.00000E+000
   0.00000E+000
   0.00000E+000
   0.00000E+000
   0.00000E+000
   0.00000E+000
   0.00000E+000
   0.00000E+000
   0.00000E+000
   0.00000E+000
   0.00000E+000
   0.00000E+000
   0.00000E+000
   0.00000E+000
   0.00000E+000
   0.00000E+000
   0.00000E+000
   0.00000E+000
   0.00000E+000
   0.00000E+000
   0.00000E+000
   0.00000E+000
   0.00000E+000
   0.00000E+000
   0.00000E+000
   0.00000E+000
   0.00000E+000
   0.00000E+000
   0.00000E+000
   0.00000E+000
   0.00000E+000
   0.00000E+000
   0.00000E+000
   0.00000E+000
   0.00000E+000
   0.00000E+000
   0.00000E+000
   0.00000E+000
   0.00000E+000
   0.00000E+000
   0.00000E+000
   0.00000E+000
   0.00000E+000
   0.00000E+000
   0.00000E+000
   0.00000E+000
   0.00000E+000
   0.00000E+000
   0.00000E+000
   0.00000E+000
   0.00000E+000
   0.00000E+000
   0.00000E+000
   0.00000E+000
   0.00000E+000
   0.00000E+000
   0.00000E+000
   0.00000E+000
   0.00000E+000
   0.00000E+000
   0.00000E+000
   0.00000E+000
   0.00000E+000
   0.00000E+000
   0.00000E+000
   0.00000E+000
   0.00000E+000
   0.00000E+000
   0.00000E+000
   0.00000E+000
   0.00000E+000
   0.00000E+000
   0.00000E+000
   0.00000E+000
   0.00000E+000
   0.00000E+000
   0.00000E+000
   0.00000E+000
   0.00000E+000
   0.00000E+000
   0.00000E+000
   0.00000E+000
   0.00000E+000
   0.00000E+000
   0.00000E+000
   0.00000E+000
   0.00000E+000
   0.00000E+000
   0.00000E+000
   0.00000E+000
   0.00000E+000
   0.00000E+000
   0.00000E+000
   0.00000E+000
   0.00000E+000
   0.00000E+000
   0.00000E+000
   0.00000E+000
   0.00000E+000
   0.00000E+000
   0.00000E+000
   0.00000E+000
   0.00000E+000
   0.00000E+000
   0.00000E+000
   0.00000E+000
   0.00000E+000
   0.00000E+000
   0.00000E+000
   0.00000E+000
   0.00000E+000
   0.00000E+000
   0.00000E+000
   0.00000E+000
   0.00000E+000
   0.00000E+000
   0.00000E+000
   0.00000E+000
   0.00000E+000
   0.00000E+000
   0.00000E+000
   0.00000E+000
   0.00000E+000
   0.00000E+000
   0.00000E+000
   0.00000E+000
   0.00000E+000
   0.00000E+000
   0.00000E+000
   0.00000E+000
   0.00000E+000
   0.00000E+000
   0.00000E+000
   0.00000E+000
   0.00000E+000
   0.00000E+000
   0.00000E+000
   0.00000E+000
   0.00000E+000
   0.00000E+000
   0.00000E+000
   0.00000E+000
   0.00000E+000
   0.00000E+000
   0.00000E+000
   0.00000E+000
   0.00000E+000
   0.00000E+000
   0.00000E+000
   0.00000E+000
   0.00000E+000
   0.00000E+000
   0.00000E+000
   0.00000E+000
   0.00000E+000
   0.00000E+000
   0.00000E+000
   0.00000E+000
   0.00000E+000
   0.00000E+000
   0.00000E+000
   0.00000E+000
   0.00000E+000
   0.00000E+000
   0.00000E+000
   0.00000E+000
   0.00000E+000
   0.00000E+000
   0.00000E+000
   0.00000E+000
   0.00000E+000
   0.00000E+000
   0.00000E+000
   0.00000E+000
   0.00000E+000
   0.00000E+000
   0.00000E+000
   0.00000E+000
   0.00000E+000
   0.00000E+000
   0.00000E+000
   0.00000E+000
   0.00000E+000
   0.00000E+000
   0.00000E+000
   0.00000E+000
   0.00000E+000
   0.00000E+000
   0.00000E+000
   0.00000E+000
   0.00000E+000
   0.00000E+000
   0.00000E+000
   0.00000E+000
   0.00000E+000
   0.00000E+000
   0.00000E+000
   0.00000E+000
   0.00000E+000
   0.00000E+000
   0.00000E+000
   0.00000E+000
   0.00000E+000
   0.00000E+000
   0.00000E+000
   0.00000E+000
   0.00000E+000
   0.00000E+000
   0.00000E+000
   0.00000E+000
   0.00000E+000
   0.00000E+000
   0.00000E+000
   0.00000E+000
   0.00000E+000
   0.00000E+000
   0.00000E+000
   0.00000E+000
   0.00000E+000
   0.00000E+000
   0.00000E+000
   0.00000E+000
   0.00000E+000
   0.00000E+000
   0.00000E+000
   0.00000E+000
   0.00000E+000
   0.00000E+000
   0.00000E+000
   0.00000E+000
   0.00000E+000
   0.00000E+000
   0.00000E+000
   0.00000E+000
   0.00000E+000
   0.00000E+000
   0.00000E+000
   0.00000E+000
   0.00000E+000
   0.00000E+000
   0.00000E+000
   0.00000E+000
   0.00000E+000
   0.00000E+000
   0.00000E+000
   0.00000E+000
   0.00000E+000
   0.00000E+000
   0.00000E+000
   0.00000E+000
   0.00000E+000
   0.00000E+000
   0.00000E+000
   0.00000E+000
   0.00000E+000
   0.00000E+000
   0.00000E+000
   0.00000E+000
   0.00000E+000
   0.00000E+000
   0.00000E+000
   0.00000E+000
   0.00000E+000
   0.00000E+000
   0.00000E+000
   0.00000E+000
   0.00000E+000
   0.00000E+000
   0.00000E+000
   0.00000E+000
   0.00000E+000
   0.00000E+000
   0.00000E+000
VECTORS flux            double
  -0.20382E-012   0.91251E-014   0.67073E-013
  -0.12861E-012  -0.17714E-012  -0.50097E-014
  -0.75580E-013  -0.60628E-013   0.23768E-012
  -0.15381E-012  -0.82262E-013  -0.87257E-013
   0.61628E-013   0.83936E-013   0.43158E-013
   0.53805E-013  -0.14061E-012  -0.86034E-014
  -0.11988E-012  -0.41693E-014  -0.18054E-012
   0.83354E-013   0.15515E-012  -0.60333E-014
  -0.14492E-012  -0.15994E-012  -0.22109E-012
  -0.39792E-012   0.26540E-012  -0.21007E-013
  -0.33469E-013  -0.17792E-013  -0.26656E-012
  -0.14439E-014   0.24937E-012  -0.24240E-013
  -0.12834E-012  -0.58772E-013  -0.25029E-012
  -0.17760E-012  -0.79642E-013   0.58743E-013
  -0.97897E-012  -0.12675E-012  -0.24251E-012
  -0.24549E-012   0.16524E-012  -0.19699E-012
  -0.26693E-013   0.19853E-012  -0.19835E-012
  -0.57387E-013   0.47070E-013   0.57096E-013
   0.25208E-013  -0.44185E-013  -0.45667E-013
  -0.19545E-013  -0.15375E-012  -0.23950E-012
   0.31526E-013   0.18634E-012   0.12571E-012
   0.54621E-013   0.24011E-012   0.17964E-013
  -0.10399E-012   0.69131E-013   0.19438E-012
   0.34140E-012  -0.33985E-013   0.10591E-012
  -0.12894E-012   0.10926E-012   0.22695E-012
  -0.86010E-013  -0.12124E-013  -0.28910E-013
   0.43530E-013  -0.16673E-012  -0.34939E-013
  -0.78486E-013  -0.25394E-012   0.18402E-012
  -0.18259E-012   0.84593E-013   0.11439E-012
   0.22816E-012  -0.18794E-013  -0.30401E-013
   0.28858E-013  -0.50167E-013   0.22981E-012
   0.92888E-015  -0.27315E-012   0.91274E-013
   0.93167E-013  -0.75577E-013  -0.19387E-012
   0.71016E-013   0.12963E-012  -0.95125E-013
  -0.84393E-014   0.13005E-012   0.28164E-012
   0.12312E-012  -0.11448E-012   0.13755E-012
  -0.11042E-013  -0.11193E-012  -0.62333E-013
  -0.26202E-012   0.85068E-013   0.14483E-012
  -0.20175E-012  -0.12358E-012  -0.37260E-013
  -0.98168E-013  -0.17803E-013   0.16628E-012
  -0.93547E-013   0.24289E-012  -0.10531E-013
   0.39216E-013  -0.56852E-013   0.57282E-013
   0.91427E-013   0.66031E-013   0.14417E-012
  -0.13996E-012  -0.65172E-015   0.12696E-012
  -0.95102E-013   0.16648E-012   0.23773E-012
  -0.11974E-012   0.28692E-015   0.58780E-013
  -0.23675E-012   0.21425E-012  -0.13253E-012
   0.17238E-012  -0.21187E-013   0.21342E-013
   0.20710E-012  -0.11248E-012   0.13282E-012
   0.19192E-012   0.20902E-013  -0.30200E-012
   0.34988E-013  -0.22426E-012   0.74353E-013
   0.21203E-012   0.10998E-013  -0.67624E-013
  -0.84315E-013   0.47497E-013  -0.47553E-012
  -0.99715E-013   0.27844E-013   0.22563E-013
   0.96286E-013  -0.22889E-012   0.74133E-013
   0.20078E-013   0.83087E-013  -0.34266E-012
   0.14579E-012  -0.22076E-012  -0.19907E-012
  -0.34971E-012  -0.36665E-013  -0.17496E-012
   0.25865E-012  -0.52443E-013  -0.13718E-012
  -0.10449E-012   0.38742E-014   0.23403E-012
   0.26872E-012   0.12222E-012  -0.26948E-013
  -0.21102E-012  -0.68703E-013   0.39340E-013
  -0.18439E-012  -0.70070E-013  -0.19532E-012
   0.59743E-013   0.88200E-013   0.14168E-012
   0.55637E-013   0.26860E-012  -0.16611E-012
   0.19039E-012   0.25455E-012  -0.10055E-012
  -0.13813E-012  -0.45887E-013  -0.16105E-012
  -0.18949E-012  -0.16473E-012  -0.47379E-013
  -0.96016E-013  -0.10122E-012  -0.81401E-013
  -0.21716E-012   0.78801E-013   0.10941E-012
   0.12419E-012   0.47973E-013  -0.88523E-013
  -0.32453E-013  -0.17791E-012  -0.19484E-012
   0.46370E-013   0.23334E-012   0.14606E-012
  -0.17451E-012   0.19390E-012  -0.12345E-012
   0.45553E-013  -0.10663E-012   0.48094E-013
  -0.69010E-013   0.13795E-012   0.14106E-012
   0.11818E-012  -0.18802E-012   0.86951E-013
   0.16890E-013   0.56730E-013  -0.15501E-012
  -0.27507E-012  -0.31803E-013   0.18867E-012
  -0.17669E-012   0.23899E-012   0.31104E-013
   0.47564E-013   0.14657E-012  -0.19105E-012
   0.69140E-013   0.45845E-013  -0.70030E-013
  -0.86011E-013   0.17366E-012  -0.23525E-012
   0.33986E-013   0.12612E-012  -0.99709E-013
   0.68567E-013   0.51907E-013   0.60494E-013
   0.16988E-012  -0.12315E-012   0.61504E-013
   0.68659E-013  -0.14353E-012  -0.42635E-013
  -0.37549E-012  -0.18056E-012   0.43723E-014
  -0.97725E-013   0.62033E-013  -0.18728E-012
  -0.19914E-013   0.17039E-012   0.25409E-013
   0.16715E-012   0.11648E-012   0.86502E-013
   0.97838E-013  -0.41124E-013   0.37345E-013
   0.15831E-012  -0.25395E-012  -0.87618E-013
   0.10801E-012  -0.12485E-012  -0.20872E-012
  -0.83297E-013  -0.32866E-012  -0.86707E-013
   0.41096E-013  -0.59438E-013   0.88411E-013
  -0.30932E-013   0.10925E-012  -0.13244E-012
  -0.17766E-012   0.12846E-014   0.12227E-012
  -0.30312E-012  -0.11985E-012   0.15572E-012
  -0.56251E-013  -0.21518E-012   0.79258E-013
  -0.27514E-012  -0.17117E-013   0.43633E-012
  -0.82063E-014   0.95459E-013   0.28309E-012
   0.11975E-012   0.14509E-012  -0.25907E-013
   0.14318E-012  -0.48722E-013   0.27556E-012
  -0.79006E-013  -0.23083E-012  -0.90533E-013
  -0.46441E-013  -0.82128E-013   0.11324E-012
  -0.18049E-012   0.97286E-013   0.82002E-014
  -0.68897E-013  -0.32128E-013  -0.64361E-013
   0.13418E-012  -0.89998E-013  -0.14505E-012
   0.10644E-012  -0.99471E-013  -0.18221E-012
  -0.10440E-012  -0.28043E-012   0.70401E-013
   0.19170E-012  -0.48478E-012  -0.56611E-013
  -0.10236E-012  -0.59951E-012  -0.69840E-013
   0.16308E-012  -0.57121E-012   0.47166E-012
  -0.89009E-013  -0.74143E-013   0.25038E-012
   0.56757E-013   0.11482E-012  -0.24227E-012
  -0.54726E-013  -0.46712E-013   0.26371E-012
   0.33751E-013  -0.27540E-013  -0.10121E-013
  -0.89538E-013  -0.52419E-013  -0.30834E-012
   0.13924E-012   0.44963E-014  -0.18549E-012
   0.77954E-014   0.93133E-013  -0.20519E-012
   0.90667E-013  -0.11516E-012   0.12366E-012
   0.24166E-012  -0.11991E-012  -0.24763E-013
  -0.41414E-013   0.25461E-012   0.48009E-013
  -0.24523E-012  -0.94203E-013   0.17296E-012
   0.12783E-012   0.72180E-015  -0.14924E-013
   0.13403E-013  -0.29466E-013   0.12064E-012
   0.19329E-012  -0.93756E-013  -0.34591E-013
   0.39260E-013  -0.22050E-013  -0.25664E-013
   0.61311E-013   0.90612E-013  -0.91248E-013
  -0.95235E-013  -0.10581E-012   0.68977E-013
   0.20620E-012  -0.14405E-012   0.23557E-012
   0.43612E-013  -0.11530E-012  -0.12833E-012
  -0.65820E-013   0.70751E-013  -0.13074E-012
  -0.19103E-013   0.43300E-012   0.75041E-013
   0.26471E-012   0.76948E-013   0.75020E-013
  -0.38393E-014  -0.44481E-013  -0.67685E-013
   0.20907E-012   0.52537E-013  -0.34062E-012
  -0.92042E-013   0.18417E-012  -0.59011E-013
   0.11001E-012   0.23946E-014  -0.27522E-014
   0.35612E-013  -0.28888E-012  -0.21806E-012
   0.16921E-012  -0.41332E-012   0.32490E-012
  -0.10768E-012  -0.21754E-012  -0.18229E-012
   0.38018E-012   0.20851E-012  -0.22671E-013
  -0.14441E-013  -0.20891E-012   0.15251E-012
  -0.75116E-014  -0.14746E-013  -0.70740E-013
  -0.11680E-012   0.98747E-013  -0.10811E-012
   0.16824E-012   0.28781E-013  -0.15912E-012
  -0.11836E-012   0.72540E-014  -0.90325E-013
  -0.64006E-013   0.19935E-012   0.34672E-012
   0.12501E-012   0.63761E-013   0.14358E-012
  -0.34413E-013   0.54005E-012   0.58603E-013
  -0.94551E-013   0.15178E-012   0.10495E-012
  -0.55317E-013   0.19295E-012   0.27146E-012
  -0.28434E-014   0.41981E-013  -0.18922E-013
   0.23793E-012  -0.94902E-014  -0.16613E-012
  -0.18189E-012   0.15100E-012  -0.29861E-014
  -0.60926E-013  -0.14099E-012   0.16934E-012
  -0.62852E-013   0.27469E-012  -0.99258E-013
  -0.10518E-012   0.12484E-012  -0.23276E-012
   0.18347E-012   0.18899E-013  -0.26785E-012
   0.71554E-013   0.10105E-012  -0.13541E-012
  -0.13981E-012   0.10070E-012  -0.32961E-012
   0.83308E-013  -0.10254E-013  -0.35438E-013
   0.38830E-013   0.72990E-013  -0.96761E-013
   0.26762E-012   0.14212E-012   0.79192E-013
   0.11328E-012   0.12592E-012  -0.20133E-012
   0.12781E-012  -0.21530E-012  -0.17289E-012
   0.19296E-012   0.21174E-012   0.25039E-012
   0.11875E-013  -0.13621E-012  -0.32619E-013
   0.54920E-013   0.13822E-012   0.23905E-012
   0.77314E-013   0.68395E-013  -0.13955E-012
  -0.11656E-012  -0.46343E-013   0.22133E-012
   0.37835E-013   0.12314E-012  -0.27282E-013
  -0.12927E-013   0.21724E-012   0.18379E-013
   0.11701E-012  -0.10054E-012   0.28146E-013
   0.19893E-013  -0.38174E-013   0.32698E-013
   0.68458E-014   0.52806E-013  -0.51546E-013
  -0.67068E-013  -0.33225E-013  -0.44353E-013
   0.83475E-013  -0.93360E-013  -0.82434E-013
  -0.17835E-012   0.16755E-012  -0.18884E-014
   0.10915E-012   0.57597E-013  -0.10744E-012
   0.17038E-012   0.25607E-013   0.17192E-012
   0.75566E-013   0.54739E-014  -0.22708E-012
   0.81723E-013  -0.62243E-013   0.39827E-012
   0.15797E-012  -0.19352E-012   0.15970E-013
   0.45798E-013  -0.15839E-012   0.17180E-012
  -0.17735E-012   0.18723E-012   0.10357E-012
  -0.66643E-013  -0.23879E-012   0.98049E-013
   0.38664E-012   0.83620E-014   0.18147E-013
   0.12546E-012  -0.79297E-013   0.53085E-013
   0.20117E-012  -0.57764E-013  -0.16867E-012
   0.12640E-012  -0.17729E-012  -0.20221E-012
  -0.21066E-012  -0.33764E-013   0.16703E-012
  -0.10040E-012   0.20763E-012   0.11033E-012
  -0.15141E-012   0.65992E-013   0.50400E-013
  -0.55866E-013  -0.34132E-013  -0.15715E-012
   0.19753E-012  -0.14805E-012   0.22734E-012
   0.90251E-013   0.71272E-013   0.57588E-013
   0.60665E-013  -0.88331E-013   0.40395E-013
   0.15202E-012   0.89928E-013   0.12656E-012
   0.16264E-012   0.25418E-012   0.26785E-012
   0.31617E-012   0.34296E-013   0.54248E-013
  -0.14366E-012  -0.34215E-013   0.18854E-012
   0.30040E-012  -0.18165E-012   0.16038E-012
   0.16053E-012   0.21989E-013   0.28184E-012
  -0.53015E-013   0.11865E-013  -0.15789E-012
   0.42926E-013  -0.17541E-013  -0.89202E-013
   0.15951E-012   0.15140E-012  -0.20147E-012
   0.11631E-012   0.31733E-013  -0.31390E-012
   0.71300E-013  -0.27451E-013  -0.29495E-012
   0.28730E-013   0.14702E-012  -0.98842E-013
   0.57523E-013  -0.10373E-012  -0.18908E-012
  -0.74856E-013   0.98838E-013  -0.14829E-012
   0.61250E-013  -0.18850E-012   0.21159E-012
  -0.58315E-013   0.48200E-013   0.76944E-013
   0.68930E-013   0.23007E-012   0.74258E-013
   0.14945E-012  -0.45112E-013   0.79520E-013
  -0.21174E-013  -0.27277E-012   0.23907E-012
   0.24046E-014  -0.46098E-013   0.25302E-012
   0.11082E-012   0.50183E-013   0.26390E-013
   0.14079E-012   0.21890E-012   0.61540E-013
   0.24798E-012   0.35451E-013   0.20980E-012
   0.43028E-015  -0.32221E-012  -0.16728E-012
  -0.30792E-012  -0.26236E-012  -0.80567E-013
  -0.34289E-012  -0.31013E-012   0.25350E-012
  -0.16448E-012  -0.48739E-013   0.18152E-012
   0.42098E-013  -0.33636E-012  -0.87835E-013
  -0.22562E-012  -0.31213E-012   0.14244E-012
   0.22413E-013   0.21982E-012   0.17266E-013
   0.22550E-012   0.68154E-013  -0.35844E-012
   0.95776E-013   0.10056E-012  -0.11374E-012
   0.11840E-013  -0.77161E-013   0.73089E-013
   0.42622E-012  -0.10794E-012  -0.68868E-013
   0.74416E-013   0.45057E-013  -0.48311E-013
   0.19774E-012  -0.16492E-013  -0.26560E-013
  -0.97561E-013  -0.98294E-013   0.15642E-012
  -0.23513E-012  -0.69002E-013   0.49014E-013
   0.16985E-012  -0.13428E-013   0.31445E-013
   0.97083E-013  -0.66641E-013  -0.36379E-013
   0.14624E-013  -0.10832E-012  -0.24773E-013
   0.72282E-013  -0.22335E-012  -0.30850E-012
   0.22758E-013  -0.76188E-013  -0.36142E-013
  -0.69893E-013  -0.68493E-013   0.15265E-012
   0.12147E-012   0.70299E-013  -0.12101E-012
  -0.19425E-012  -0.54964E-013  -0.11248E-012
  -0.21494E-012  -0.44397E-013  -0.51546E-013
  -0.16844E-012   0.30974E-013   0.56254E-013
  -0.12192E-012  -0.13383E-014  -0.13950E-012
   0.54800E-013  -0.22201E-012  -0.14925E-012
  -0.14433E-012  -0.12450E-012   0.19917E-012
   0.34005E-012   0.18165E-012   0.17070E-013
  -0.18798E-012  -0.10579E-012   0.24848E-012
   0.13101E-012   0.13262E-012  -0.14294E-012
  -0.14846E-012   0.41924E-013  -0.24783E-013
  -0.10529E-012   0.92648E-013  -0.76181E-013
   0.92493E-013  -0.10369E-012  -0.86248E-014
   0.43364E-012  -0.87506E-013   0.16532E-013
   0.11105E-012  -0.65102E-013   0.97938E-013
   0.27649E-012  -0.28213E-012  -0.99989E-013
  -0.15790E-012  -0.26247E-012  -0.20951E-013
  -0.13496E-012  -0.12456E-012  -0.73172E-013
   0.53696E-013  -0.33546E-012  -0.10584E-012
   0.27296E-013  -0.52455E-012  -0.30747E-012
  -0.80531E-013   0.13179E-012   0.21875E-012
   0.10584E-012   0.11053E-013  -0.94208E-013
   0.88404E-013   0.18772E-013  -0.13071E-012
   0.14469E-012   0.14276E-012  -0.17423E-012
   0.15032E-012   0.20715E-013   0.15493E-013
  -0.33325E-013  -0.25011E-012   0.22454E-013
   0.20033E-012   0.76288E-013  -0.32072E-013
  -0.24104E-012   0.11864E-012   0.65939E-013
  -0.15501E-012   0.48473E-013  -0.33974E-012
   0.45194E-012   0.49322E-012  -0.68335E-013
   0.26085E-012   0.14436E-012  -0.11811E-012
   0.64793E-012   0.35905E-012  -0.46633E-013
  -0.14442E-013   0.19879E-012  -0.51253E-013
  -0.27341E-012  -0.58452E-013   0.16388E-012
  -0.91725E-014  -0.18070E-012  -0.15128E-012
  -0.11073E-012  -0.15755E-012   0.35222E-013
  -0.21107E-013   0.10292E-012   0.15895E-012
  -0.51158E-013   0.17547E-012  -0.61451E-013
   0.15407E-012   0.45558E-013   0.60783E-013
  -0.18024E-012   0.40831E-012   0.11186E-012
  -0.11380E-012   0.18125E-012  -0.25495E-012
  -0.10817E-012  -0.35154E-012  -0.61575E-013
   0.55407E-013  -0.44694E-013  -0.66275E-013
   0.11621E-012   0.17702E-012  -0.11174E-012
  -0.25482E-012  -0.48899E-012   0.42152E-013
  -0.12571E-012   0.89504E-013   0.16421E-012
  -0.20851E-012   0.10058E-012  -0.12610E-012
   0.11586E-012   0.29206E-012   0.90709E-013
  -0.10102E-012  -0.15221E-012  -0.55508E-014
  -0.49724E-013   0.81863E-013  -0.32883E-012
  -0.11319E-012   0.55174E-013  -0.92670E-013
   0.18544E-012   0.11678E-012  -0.10708E-012
  -0.67607E-013  -0.90291E-013   0.89093E-013
  -0.90084E-013   0.68251E-013   0.11176E-012
   0.24519E-012  -0.10119E-012   0.12715E-012
   0.16555E-012   0.10803E-012   0.11951E-012
  -0.44449E-014   0.25485E-013   0.76700E-013
   0.21514E-013  -0.13034E-012   0.16362E-012
   0.73417E-013  -0.19022E-012   0.10876E-012
  -0.51848E-013  -0.10733E-013   0.72465E-013
   0.20806E-012   0.14362E-012   0.12903E-012
   0.15714E-012  -0.48237E-014  -0.27145E-012
  -0.60689E-013  -0.13462E-012  -0.15355E-012
   0.26020E-013  -0.28293E-012   0.18122E-012
   0.31952E-012   0.45328E-012   0.10730E-012
  -0.79357E-013  -0.34530E-013  -0.20964E-012
   0.16657E-012  -0.77965E-013  -0.12802E-012
  -0.17905E-013  -0.30248E-012   0.82465E-013
   0.86853E-013   0.18211E-013   0.11350E-013
   0.52290E-013   0.23611E-012   0.15981E-012
   0.11372E-012   0.22560E-012  -0.21387E-013
  -0.17310E-012  -0.15057E-012  -0.11034E-012
  -0.24410E-012  -0.14490E-012   0.19388E-012
  -0.28839E-012   0.64242E-013   0.82149E-013
  -0.32768E-013  -0.12922E-012   0.89235E-013
  -0.17884E-012   0.21114E-014  -0.25865E-012
  -0.18392E-012   0.19004E-012   0.22340E-013
  -0.19318E-012   0.25507E-012   0.16654E-012
  -0.44775E-012  -0.12973E-012   0.12064E-012
  -0.47087E-013  -0.25598E-012  -0.27694E-012
  -0.54302E-013  -0.46857E-012  -0.21571E-012
   0.17034E-012   0.82821E-013  -0.72543E-013
   0.26038E-012   0.49831E-013   0.70490E-014
  -0.31231E-013  -0.41646E-013   0.53459E-013
   0.73356E-013   0.13252E-013   0.41024E-013
   0.48946E-013  -0.52315E-012   0.11417E-012
   0.12607E-012   0.20508E-013  -0.13347E-012
   0.25798E-012   0.12922E-012  -0.30292E-013
   0.57614E-012  -0.10277E-013   0.29851E-013
  -0.30737E-012   0.19966E-013   0.25328E-012
   0.16398E-014   0.19607E-014   0.97446E-013
  -0.39586E-012   0.18988E-012   0.32907E-013
  -0.49713E-013   0.22502E-012   0.30341E-013
   0.90817E-014   0.12777E-013   0.17719E-012
   0.35838E-012   0.22952E-012   0.17761E-012
   0.14289E-013  -0.22859E-012   0.11886E-012
   0.14443E-012   0.46552E-013   0.40778E-012
  -0.32495E-013  -0.47272E-012   0.15921E-012
  -0.16221E-012   0.27763E-013   0.91709E-013
  -0.84065E-013   0.33057E-012   0.21537E-012
  -0.34888E-012   0.26519E-012  -0.57726E-013
   0.28660E-012   0.37044E-013  -0.30560E-013
   0.27476E-012  -0.20325E-012   0.20263E-013
  -0.78596E-014   0.13447E-012   0.40715E-013
  -0.17314E-012  -0.23797E-012  -0.49729E-012
   0.11918E-012   0.18220E-012   0.11752E-013
   0.20254E-012   0.26307E-012   0.23520E-012
   0.46335E-013   0.39512E-013  -0.33998E-012
   0.58772E-013  -0.56102E-013  -0.13174E-012
  -0.34460E-013   0.76975E-013  -0.17805E-012
   0.87403E-014  -0.22869E-013  -0.15911E-012
  -0.48428E-013  -0.30663E-012  -0.35873E-013
  -0.21183E-013  -0.48284E-013   0.22914E-012
   0.88614E-013   0.18401E-012   0.42956E-013
   0.96930E-013   0.64540E-013   0.20590E-012
   0.18504E-013   0.16089E-012  -0.13973E-012
  -0.26799E-012   0.19667E-012  -0.23479E-013
   0.13195E-012   0.33726E-012  -0.99537E-013
  -0.36121E-012   0.12144E-013  -0.13523E-012
  -0.94202E-014  -0.54560E-013  -0.26067E-013
  -0.12985E-012   0.26485E-012   0.10224E-013
  -0.12620E-012   0.18988E-012   0.21091E-012
   0.22728E-012   0.48248E-013   0.19317E-012
  -0.43467E-012  -0.70482E-013   0.27631E-012
   0.14798E-012  -0.11244E-012  -0.27353E-012
   0.31011E-014  -0.89424E-013  -0.31072E-012
   0.96917E-013  -0.29929E-012  -0.10958E-012
  -0.96997E-013  -0.31162E-012   0.15892E-012
  -0.16591E-012  -0.25115E-012  -0.50232E-013
  -0.59512E-013  -0.45161E-012  -0.29932E-012
  -0.27312E-013  -0.44910E-012  -0.29100E-012
  -0.10786E-012   0.46146E-014   0.23477E-012
  -0.30636E-012  -0.59876E-013   0.21505E-012
   0.12495E-012  -0.29093E-012   0.18647E-013
   0.52388E-014  -0.99167E-013  -0.53142E-013
   0.60419E-013  -0.12397E-012   0.83498E-013
   0.19022E-013  -0.53892E-013  -0.38120E-012
  -0.50149E-013  -0.15116E-012   0.61650E-014
  -0.92308E-013   0.26871E-014   0.15281E-012
   0.27896E-014   0.15704E-012  -0.45037E-013
   0.29955E-012   0.19163E-012  -0.59863E-013
   0.48505E-013   0.18169E-012  -0.23677E-013
   0.94789E-013   0.22557E-012   0.25216E-012
   0.34476E-013   0.64318E-013   0.14901E-012
   0.17909E-012  -0.25001E-012  -0.23596E-012
  -0.59812E-013   0.10192E-012  -0.12509E-014
   0.26332E-012  -0.26460E-012  -0.45056E-014
  -0.10848E-015  -0.15532E-012   0.43324E-013
  -0.30876E-012  -0.14049E-013   0.50447E-013
   0.18265E-012  -0.36450E-012  -0.14550E-012
   0.14821E-012  -0.17741E-013  -0.13628E-012
  -0.97195E-013   0.20964E-012   0.16067E-012
  -0.19906E-012  -0.22983E-012  -0.30420E-012
   0.26231E-012  -0.24716E-013  -0.89655E-013
  -0.10934E-012   0.40200E-013   0.85114E-013
   0.65245E-013   0.13254E-012  -0.11851E-012
   0.23454E-012  -0.21777E-013   0.39568E-013
   0.11196E-012  -0.69348E-012   0.16459E-012
   0.17067E-012  -0.41763E-012  -0.65577E-013
  -0.24522E-013   0.22010E-012  -0.43476E-013
  -0.11187E-012   0.89172E-013  -0.38659E-012
  -0.16344E-012   0.25374E-014  -0.71068E-013
   0.71643E-013   0.19558E-012  -0.12561E-012
   0.23627E-012   0.19995E-012  -0.40220E-013
   0.22821E-012   0.48044E-013   0.64278E-014
   0.12953E-012   0.44902E-013  -0.23927E-013
  -0.66012E-013  -0.27457E-012  -0.77548E-013
  -0.93830E-013  -0.16046E-012  -0.83135E-013
  -0.12931E-012  -0.18775E-012  -0.90158E-013
   0.12050E-012  -0.31938E-013   0.15118E-012
  -0.47123E-013   0.74088E-013  -0.43814E-013
  -0.77022E-013  -0.53897E-012  -0.19846E-012
  -0.48127E-014  -0.21993E-013   0.22563E-012
   0.36448E-013   0.19258E-012  -0.21172E-012
  -0.22651E-012   0.75069E-013   0.47588E-013
  -0.20055E-012   0.83232E-013   0.35712E-013
  -0.12725E-013  -0.88941E-013   0.27876E-014
  -0.12896E-012   0.14050E-012  -0.25132E-012
  -0.15395E-012   0.19865E-013   0.59034E-013
   0.24461E-013   0.20473E-012   0.76354E-013
   0.11512E-012   0.66240E-013  -0.23358E-013
   0.33407E-012  -0.19058E-012   0.89857E-013
   0.95064E-013  -0.18550E-012  -0.27103E-012
   0.11560E-012  -0.22939E-012  -0.23116E-012
  -0.23947E-012   0.18104E-012   0.29280E-012
  -0.73317E-013  -0.17650E-012  -0.91978E-013
   0.39136E-013   0.13893E-013  -0.42378E-012
  -0.85877E-013  -0.17685E-012  -0.43446E-013
  -0.66129E-013   0.17294E-012  -0.20631E-012
   0.18369E-012   0.24987E-012   0.18404E-012
   0.18896E-012   0.49330E-013   0.35583E-013
  -0.35764E-013   0.22798E-013   0.26983E-012
   0.21567E-012   0.73131E-013  -0.10230E-012
  -0.73915E-013  -0.34437E-013   0.46653E-013
  -0.62177E-013   0.53356E-013   0.26760E-013
  -0.82957E-013  -0.51026E-012  -0.74849E-013
  -0.24124E-012  -0.42261E-012   0.24667E-012
   0.68319E-013  -0.59867E-013   0.17228E-012
   0.24367E-013  -0.16838E-012   0.25189E-014
  -0.17068E-012  -0.89238E-014   0.46481E-012
   0.77186E-013   0.25577E-012   0.13948E-012
   0.35439E-012   0.69628E-013  -0.33046E-013
   0.12669E-012   0.23534E-012   0.33501E-012
  -0.25245E-012  -0.42592E-012   0.74675E-013
  -0.17387E-012   0.48043E-013   0.22511E-012
  -0.57170E-013   0.29686E-014  -0.36739E-012
   0.57245E-013  -0.15225E-012  -0.47265E-013
  -0.19385E-012  -0.13458E-012  -0.25033E-015
   0.81314E-013   0.19285E-012   0.11004E-012
   0.22568E-012  -0.23239E-013  -0.25241E-012
  -0.41037E-012   0.20529E-013   0.29015E-013
   0.14621E-013  -0.18679E-012   0.46427E-013
   0.86943E-013   0.11368E-012  -0.63191E-013
  -0.14547E-013  -0.46845E-013   0.20782E-012
   0.79825E-013   0.30151E-012  -0.17513E-012
  -0.83521E-013  -0.11369E-012   0.20052E-012
   0.21468E-013  -0.28336E-012   0.19494E-012
  -0.22834E-013   0.10256E-012  -0.49142E-013
  -0.15445E-012  -0.94536E-013  -0.11499E-012
   0.11840E-012   0.26573E-012  -0.19503E-013
  -0.13301E-012  -0.11257E-012   0.11032E-012
   0.10254E-012   0.22558E-012   0.11173E-012
   0.99073E-013  -0.26312E-013   0.52877E-013
  -0.25357E-012   0.10640E-013  -0.48056E-013
   0.16564E-012   0.13252E-012  -0.89829E-013
   0.29583E-013  -0.30507E-012  -0.13110E-012
   0.10413E-012   0.26015E-012  -0.30061E-012
   0.10923E-012  -0.27773E-012  -0.10700E-012
  -0.64091E-013  -0.86072E-013  -0.22930E-012
   0.36341E-012  -0.22322E-012  -0.18757E-012
   0.15362E-012  -0.25887E-012  -0.18263E-012
   0.18964E-012  -0.74499E-013   0.12403E-013
  -0.58171E-014  -0.15481E-012   0.29026E-013
   0.30263E-013   0.26591E-013  -0.71327E-013
   0.99955E-013   0.30199E-012  -0.27430E-013
   0.12979E-012   0.12949E-012  -0.24392E-012
   0.79929E-013  -0.14630E-013  -0.12242E-012
   0.35625E-013   0.23549E-013  -0.31285E-012
  -0.32260E-013   0.35345E-012  -0.53856E-013
  -0.25054E-012   0.18950E-012  -0.95684E-013
  -0.17826E-012   0.64533E-013  -0.18937E-012
  -0.28639E-012   0.36242E-013  -0.44411E-012
  -0.31011E-013   0.25106E-012   0.17582E-012
  -0.14101E-012   0.27284E-012   0.22201E-012
  -0.43237E-014   0.18327E-012  -0.27476E-012
   0.20037E-012   0.98379E-013  -0.21451E-012
   0.38304E-013   0.12175E-012  -0.28356E-013
   0.16906E-012   0.26157E-012  -0.54743E-013
  -0.71101E-013   0.92025E-013   0.21110E-012
  -0.18585E-012   0.13910E-012  -0.44401E-013
  -0.57936E-013  -0.57695E-013  -0.58558E-013
   0.84602E-013   0.24052E-013  -0.23560E-012
  -0.34563E-012   0.64637E-012   0.21320E-012
   0.10820E-012   0.20791E-012  -0.12843E-012
  -0.13093E-012  -0.10516E-012  -0.22391E-013
  -0.15603E-012  -0.23805E-013   0.19926E-012
   0.24900E-013  -0.17003E-012  -0.60569E-013
   0.13360E-012  -0.13189E-012  -0.17793E-012
   0.23979E-012  -0.29010E-013  -0.16745E-013
   0.17711E-012  -0.33981E-012   0.13866E-012
  -0.43028E-013  -0.22692E-012   0.21446E-013
   0.11248E-012  -0.19213E-013   0.83478E-013
   0.57474E-013  -0.27578E-012   0.82893E-013
   0.70047E-013  -0.30768E-012   0.26471E-013
  -0.29087E-014   0.12654E-012   0.41527E-013
  -0.87064E-013  -0.10691E-012  -0.19158E-012
  -0.95298E-013  -0.43673E-013   0.14408E-012
  -0.35966E-013  -0.18291E-013   0.26352E-013
   0.20312E-012  -0.28941E-012   0.38559E-013
   0.10762E-012  -0.53969E-013  -0.41574E-013
   0.87129E-014   0.15764E-012  -0.10213E-012
  -0.31753E-012   0.12957E-012  -0.31006E-013
  -0.63402E-014   0.76961E-013   0.26075E-012
  -0.10098E-012  -0.18267E-012  -0.32950E-012
  -0.89793E-013  -0.82090E-013  -0.28915E-012
  -0.19224E-013   0.27532E-013   0.52877E-013
  -0.41434E-012   0.85151E-015  -0.87202E-013
  -0.17413E-012   0.44628E-013   0.19739E-012
   0.14835E-014   0.24924E-012   0.16306E-012
   0.55950E-013   0.15221E-013   0.31357E-012
   0.44184E-013   0.17982E-013  -0.31531E-012
  -0.67396E-013   0.11821E-012   0.10557E-012
   0.45749E-013  -0.15555E-012   0.12316E-012
   0.25382E-012   0.70413E-013   0.44884E-014
   0.15372E-012   0.24882E-012   0.23406E-012
   0.63987E-013   0.12227E-012  -0.58488E-013
  -0.16329E-012  -0.12653E-012  -0.88414E-013
  -0.21303E-012  -0.81826E-013  -0.50851E-013
   0.45625E-013   0.49742E-012   0.39635E-012
  -0.17704E-013  -0.66041E-013  -0.49996E-012
  -0.10710E-012  -0.16802E-012  -0.92661E-013
   0.60637E-013  -0.46159E-013   0.15081E-012
   0.33732E-012   0.10453E-012  -0.21623E-012
  -0.15774E-012  -0.32171E-013  -0.90491E-013
  -0.22657E-012   0.18935E-013  -0.19421E-012
  -0.71689E-013   0.93700E-013  -0.11677E-012
  -0.86576E-013   0.28105E-013  -0.22519E-012
   0.95751E-013  -0.78778E-013   0.24726E-012
  -0.14403E-013   0.10817E-012  -0.26414E-012
   0.50073E-013  -0.12725E-012  -0.12336E-012
   0.98803E-013   0.10096E-012   0.40761E-013
  -0.67012E-013   0.27705E-012  -0.46319E-013
   0.12159E-013  -0.30715E-013  -0.94474E-013
   0.98465E-013   0.19407E-012  -0.92757E-013
  -0.88437E-013   0.20017E-012  -0.13833E-013
   0.25264E-012   0.43815E-013  -0.39631E-013
   0.19967E-013  -0.59747E-013  -0.81930E-013
   0.49873E-013  -0.38042E-013  -0.14394E-012
   0.14614E-012  -0.34348E-013  -0.14378E-012
   0.10653E-012  -0.67132E-013   0.10998E-012
   0.21356E-012  -0.29348E-012   0.27963E-014
   0.14088E-013   0.90096E-013  -0.94054E-013
  -0.11287E-012   0.69278E-013  -0.64639E-013
  -0.19513E-012  -0.86735E-013   0.27549E-014
  -0.87543E-013  -0.31283E-012  -0.26632E-013
   0.18099E-012  -0.14687E-012  -0.48178E-012
  -0.10385E-012   0.17301E-012   0.20738E-012
  -0.15341E-013   0.15700E-012   0.21529E-013
  -0.23312E-012   0.71484E-013   0.18937E-012
   0.21995E-012  -0.15599E-012   0.18923E-013
   0.13518E-012   0.22821E-012   0.14890E-012
   0.29085E-012  -0.27715E-012  -0.30147E-012
   0.18413E-012   0.14013E-012  -0.55291E-013
   0.72606E-013   0.67753E-013   0.27689E-012
   0.13285E-012   0.24686E-012  -0.84444E-014
   0.25014E-012  -0.20734E-012   0.21477E-012
   0.12074E-012   0.18877E-012   0.75445E-014
  -0.30472E-012  -0.13241E-012   0.97041E-014
  -0.16591E-012  -0.23032E-013   0.27067E-012
  -0.20040E-012  -0.29536E-013  -0.11905E-012
   0.10528E-012   0.32353E-013  -0.60490E-013
   0.82348E-013  -0.65279E-013   0.12262E-012
   0.25576E-012  -0.14140E-012  -0.16025E-012
  -0.54605E-012  -0.89530E-013  -0.12961E-012
  -0.27947E-012   0.23458E-012   0.33321E-013
   0.13775E-012  -0.25800E-013   0.94712E-013
  -0.10381E-012   0.11386E-012  -0.29272E-013
  -0.29279E-014   0.14638E-013  -0.18248E-012
   0.33415E-013   0.19397E-012   0.35562E-013
  -0.54808E-013  -0.86918E-013   0.73178E-013
   0.13958E-012  -0.43626E-013  -0.62855E-013
   0.47037E-013   0.11710E-012   0.59070E-013
  -0.94579E-014   0.13569E-012   0.71842E-013
  -0.15813E-012   0.97664E-013  -0.91085E-013
   0.21264E-012  -0.88888E-013   0.10543E-012
   0.14327E-012  -0.17100E-013  -0.87944E-013
  -0.64489E-013   0.22763E-012   0.64503E-013
  -0.18217E-012   0.23900E-012  -0.18898E-013
  -0.17845E-012   0.18313E-013   0.40504E-012
  -0.20287E-012   0.18365E-012   0.26195E-012
  -0.20652E-012   0.29464E-012   0.10412E-012
   0.22901E-012  -0.14588E-012  -0.45622E-013
   0.56767E-012   0.29101E-012   0.12551E-012
   0.51267E-012   0.92179E-013  -0.12671E-012
   0.50571E-013  -0.98803E-013   0.95470E-013
   0.25234E-012  -0.27782E-012   0.27137E-014
   0.26052E-012   0.34285E-012   0.13663E-012
   0.38731E-013  -0.22360E-012  -0.62932E-013
   0.77097E-013   0.30465E-013  -0.11865E-013
   0.94422E-013   0.12408E-012   0.13487E-013
  -0.37723E-014  -0.14582E-013   0.28560E-012
   0.11952E-012  -0.11012E-012   0.43653E-012
   0.15276E-012   0.13235E-012  -0.50742E-013
  -0.24453E-013  -0.19926E-012  -0.17679E-013
  -0.26166E-012  -0.89049E-013  -0.51667E-013
  -0.59490E-013  -0.27264E-012  -0.38444E-013
  -0.63708E-012   0.15178E-012  -0.15936E-012
  -0.22666E-013   0.12712E-012   0.18831E-013
  -0.17049E-012   0.29027E-012  -0.17104E-012
  -0.52324E-012  -0.44282E-013   0.13160E-012
  -0.19286E-013   0.45973E-013  -0.20304E-012
  -0.53064E-012   0.19685E-012   0.97199E-013
   0.68455E-014   0.73500E-013  -0.89397E-013
  -0.49499E-012  -0.43741E-013   0.25298E-013
   0.37069E-012   0.64583E-013   0.69333E-013
   0.42221E-012   0.15104E-012  -0.54013E-014
   0.13549E-012  -0.11281E-012  -0.71692E-013
   0.30542E-012  -0.48169E-012   0.50248E-014
   0.16113E-012  -0.10213E-012   0.13064E-012
  -0.17615E-012   0.80325E-013   0.14829E-012
   0.71468E-015   0.11154E-012  -0.10307E-012
  -0.13196E-012  -0.12857E-012   0.33145E-013
   0.67929E-014   0.24756E-012  -0.33205E-012
  -0.30217E-012  -0.12664E-012   0.47239E-014
   0.80554E-013   0.18273E-012   0.44081E-013
  -0.15573E-012   0.21808E-012  -0.11407E-012
   0.10823E-012  -0.33548E-012  -0.67265E-013
   0.44737E-012  -0.10462E-012  -0.30034E-013
   0.30820E-012  -0.24665E-012   0.30743E-013
   0.77684E-014  -0.14954E-012  -0.98401E-013
  -0.90077E-013  -0.16348E-012   0.21292E-014
  -0.11785E-012  -0.71040E-014  -0.48545E-013
   0.70753E-013   0.24604E-012  -0.77286E-013
  -0.29703E-013  -0.45482E-013   0.60319E-015
  -0.16056E-012   0.49312E-013  -0.23006E-012
  -0.28539E-012   0.41845E-012  -0.15381E-012
  -0.48888E-012   0.39434E-012   0.45434E-013
  -0.31742E-013  -0.47305E-013  -0.35171E-012
  -0.63522E-013   0.18764E-012  -0.11428E-012
   0.52108E-013   0.13573E-013   0.25246E-012
  -0.69671E-013  -0.13384E-012  -0.29857E-012
   0.14628E-012   0.17608E-012  -0.26015E-012
   0.14986E-012   0.96204E-013   0.38656E-012
   0.10088E-012   0.59854E-013   0.58929E-013
   0.40179E-013   0.26574E-012  -0.29744E-012
   0.92493E-013  -0.86743E-014   0.29590E-013
   0.11137E-012  -0.16044E-013   0.16330E-012
   0.23103E-012  -0.45634E-013  -0.24451E-012
   0.95324E-013  -0.20975E-013   0.20925E-012
  -0.39075E-013   0.21668E-013  -0.27431E-012
   0.51337E-013  -0.46213E-012   0.82297E-013
   0.20861E-012   0.15965E-012   0.11066E-012
  -0.13648E-013   0.31557E-012  -0.19029E-012
  -0.88210E-014   0.69217E-012  -0.13836E-012
   0.49877E-014   0.17790E-012   0.44044E-013
  -0.46948E-013  -0.16132E-012   0.62802E-012
  -0.75182E-013   0.27222E-013  -0.24497E-013
  -0.10586E-012  -0.15912E-012  -0.48929E-013
   0.15395E-012   0.11825E-013  -0.73933E-013
   0.79260E-013  -0.79440E-013  -0.57205E-012
   0.12769E-012   0.16310E-012   0.20514E-012
  -0.37121E-012   0.59807E-012   0.13826E-012
   0.15796E-012  -0.68764E-013  -0.10644E-012
   0.25515E-012   0.30402E-012  -0.71890E-013
   0.31714E-012   0.17676E-012  -0.15576E-012
   0.13931E-012   0.88198E-013   0.36345E-012
   0.12568E-012   0.19571E-012  -0.23235E-012
  -0.28374E-012  -0.18876E-012  -0.66105E-013
   0.34320E-012  -0.15663E-013   0.38908E-013
  -0.18631E-012  -0.82941E-013   0.26667E-012
   0.33302E-012   0.11496E-012   0.11822E-012
  -0.68175E-013  -0.39245E-012   0.42935E-013
   0.23523E-012  -0.84422E-013   0.15275E-012
   0.19096E-012  -0.10380E-012  -0.13817E-012
  -0.23189E-012   0.94214E-013   0.26188E-013
   0.47354E-013  -0.76187E-013  -0.86338E-013
   0.37793E-012   0.25483E-013   0.12067E-012
  -0.92148E-013   0.61289E-017  -0.45453E-012
   0.53432E-013   0.75558E-013  -0.66940E-012
   0.38080E-012   0.50620E-013  -0.32984E-013
  -0.20274E-013   0.38714E-014   0.13017E-012
   0.64046E-012   0.50599E-012  -0.17958E-013
  -0.40870E-012   0.13560E-012  -0.23107E-012
  -0.20701E-013  -0.12435E-013   0.71642E-013
  -0.26544E-012   0.14190E-012  -0.15616E-013
   0.58600E-013  -0.28409E-013   0.34647E-012
  -0.13449E-014   0.71495E-015   0.54282E-012
   0.11108E-012  -0.80314E-013   0.10138E-012
  -0.10698E-012  -0.76707E-013   0.35723E-012
  -0.26827E-012  -0.24404E-013  -0.28967E-013
   0.49190E-012   0.18891E-012   0.15409E-012
  -0.89961E-013  -0.48152E-013  -0.29916E-012
  -0.57966E-013   0.15238E-012   0.16708E-012
  -0.18547E-012   0.32253E-013   0.11354E-012
  -0.29959E-012  -0.29608E-012  -0.97404E-013
   0.51879E-013   0.64899E-013  -0.32644E-012
   0.18833E-012   0.42384E-014  -0.57587E-013
  -0.22760E-012   0.35479E-013   0.15617E-012
   0.44544E-012   0.53030E-013  -0.35080E-013
   0.78486E-014  -0.65232E-012   0.14332E-012
   0.13832E-013  -0.97556E-014  -0.32187E-012
  -0.84968E-013   0.71734E-013  -0.41693E-013
   0.10477E-012  -0.21099E-012  -0.28499E-012
  -0.26756E-013   0.11597E-012   0.15068E-013
  -0.55061E-013   0.15260E-012  -0.52886E-013
  -0.40367E-013  -0.14320E-013   0.36687E-012
   0.16128E-012  -0.10101E-012  -0.20064E-013
   0.15902E-012  -0.15925E-013   0.75354E-013
  -0.20869E-012  -0.20445E-012   0.81295E-013
  -0.12928E-012   0.13798E-012  -0.49254E-013
  -0.87369E-013   0.14430E-012   0.23174E-012
  -0.30833E-012  -0.26157E-012   0.11870E-012
   0.19004E-012  -0.17339E-012   0.10011E-012
  -0.36838E-013   0.23582E-012   0.13142E-012
   0.86635E-014   0.37590E-014  -0.23665E-012
  -0.12276E-012   0.20424E-012   0.56620E-013
  -0.11240E-012  -0.57896E-013   0.90753E-013
  -0.87743E-014   0.35111E-013  -0.27591E-012
  -0.10535E-012   0.60579E-015   0.16384E-012
  -0.10861E-012   0.84145E-013  -0.55220E-013
  -0.41064E-012   0.75283E-012   0.13969E-012
  -0.49530E-012   0.65209E-012   0.19356E-012
   0.22695E-012   0.14245E-013  -0.20477E-012
   0.45809E-013  -0.11469E-012  -0.11784E-012
  -0.94145E-013   0.24654E-012  -0.22092E-012
   0.87536E-013  -0.37947E-012  -0.22747E-012
  -0.80369E-013   0.72069E-013  -0.90242E-013
  -0.15684E-012   0.11288E-013  -0.74941E-013
   0.34899E-012  -0.13296E-012  -0.18404E-012
   0.22240E-013   0.19089E-012   0.39233E-012
   0.11915E-012   0.25791E-012  -0.46318E-013
  -0.10623E-012   0.14032E-012  -0.17169E-012
   0.91047E-013  -0.39504E-013   0.28612E-012
  -0.35973E-012  -0.30642E-013  -0.45362E-014
  -0.62312E-014  -0.24172E-012  -0.69220E-013
   0.80175E-013   0.55418E-013  -0.44926E-013
   0.11201E-012  -0.95131E-013   0.65212E-013
   0.12651E-012   0.67273E-013  -0.39018E-012
   0.13744E-012   0.69086E-013  -0.33431E-012
   0.15592E-012  -0.39730E-012  -0.82018E-013
  -0.18273E-012   0.19369E-012  -0.23632E-012
  -0.99266E-014  -0.30800E-013  -0.41724E-012
   0.13366E-012   0.12243E-012  -0.11507E-012
   0.21564E-013   0.29076E-012  -0.10114E-012
   0.16890E-012   0.66087E-013   0.89817E-013
  -0.10820E-012  -0.38302E-013  -0.72487E-013
   0.45968E-013   0.24742E-012  -0.17327E-012
   0.11205E-012  -0.46150E-012  -0.21673E-012
  -0.29248E-012   0.22501E-012  -0.10690E-012
  -0.14399E-012   0.30271E-012   0.12742E-012
  -0.53983E-013   0.23758E-013   0.12889E-012
   0.84246E-013   0.37076E-013  -0.42729E-012
   0.10703E-012  -0.20877E-012  -0.53048E-013
  -0.79958E-013   0.84711E-013   0.11409E-012
   0.22358E-012  -0.51463E-013  -0.30834E-013
  -0.25815E-013  -0.22263E-013   0.51233E-013
  -0.14969E-012  -0.17030E-012  -0.48767E-013
   0.33482E-012   0.61326E-013  -0.14939E-012
  -0.11066E-013   0.18645E-013   0.11757E-012
  -0.12425E-013   0.89862E-013   0.13575E-013
  -0.14069E-013  -0.74597E-013  -0.12083E-012
   0.13776E-012   0.94701E-013  -0.22152E-013
  -0.39014E-013  -0.22253E-012  -0.45860E-013
   0.21819E-012   0.73342E-013   0.19317E-012
   0.96598E-013   0.35197E-013   0.17543E-013
   0.18627E-012   0.55220E-013  -0.30145E-012
   0.45425E-014  -0.89143E-013  -0.28763E-012
   0.94131E-013   0.19396E-013   0.19623E-012
  -0.66656E-013   0.19440E-012  -0.10404E-012
  -0.93685E-013  -0.19173E-012  -0.26105E-013
  -0.59815E-013   0.19576E-013   0.14091E-013
  -0.21878E-012   0.51325E-013  -0.14188E-012
  -0.13894E-012  -0.31976E-012  -0.92746E-013
  -0.12770E-012  -0.67671E-013   0.10913E-012
   0.33731E-013   0.12720E-012  -0.72612E-013
   0.24636E-012   0.13028E-012   0.94465E-014
  -0.19524E-013  -0.27031E-012  -0.20577E-012
  -0.26561E-013  -0.12375E-012   0.18418E-012
   0.23598E-013  -0.13741E-012  -0.27480E-012
  -0.21387E-012  -0.27773E-012   0.67771E-013
   0.26427E-013   0.51528E-013  -0.17290E-012
  -0.25397E-013   0.23800E-012  -0.89253E-014
   0.13681E-012  -0.60453E-013  -0.17207E-012
   0.11403E-012  -0.73033E-013   0.21451E-012
  -0.15368E-012   0.57918E-013  -0.12243E-013
   0.21547E-012   0.16892E-012  -0.37688E-013
  -0.39100E-013   0.14963E-012   0.23727E-012
  -0.25309E-012   0.57207E-014  -0.69887E-013
   0.71868E-013   0.34069E-012   0.16912E-012
  -0.89939E-013  -0.52034E-013  -0.86248E-013
   0.40538E-013  -0.97283E-013  -0.37673E-014
  -0.21334E-012  -0.27149E-013  -0.15579E-012
   0.91549E-013   0.66086E-013   0.47144E-013
  -0.33604E-012  -0.23964E-013  -0.57484E-013
  -0.38010E-012  -0.65881E-012   0.14258E-012
   0.16086E-012  -0.39811E-012   0.64329E-013
  -0.37342E-012   0.33454E-012   0.22996E-013
  -0.24005E-012   0.30464E-012   0.11342E-012
   0.11665E-012   0.39874E-013  -0.16529E-012
   0.83768E-013  -0.75074E-013  -0.81239E-013
  -0.15632E-013   0.15128E-012   0.18812E-012
   0.86953E-013   0.30310E-012   0.45140E-012
   0.73269E-013   0.96146E-013  -0.43933E-013
   0.32641E-012   0.15326E-012   0.24914E-012
  -0.10828E-012   0.16023E-012   0.18933E-012
  -0.26397E-012  -0.52526E-014  -0.42365E-013
   0.94224E-013   0.13963E-012   0.28768E-013
  -0.20246E-012   0.27920E-012  -0.49745E-013
  -0.16671E-012   0.17208E-012  -0.14345E-012
  -0.17197E-012  -0.13246E-013   0.23656E-012
  -0.14664E-012  -0.10241E-012  -0.14898E-012
  -0.10596E-012  -0.68602E-013  -0.53152E-013
   0.48308E-013  -0.62812E-013  -0.12166E-013
   0.20723E-012   0.79088E-013   0.12484E-012
   0.71988E-013  -0.61402E-013   0.10747E-012
   0.25274E-012  -0.22354E-012   0.80824E-013
  -0.19610E-013   0.35585E-012   0.17293E-012
  -0.10372E-012   0.15890E-012  -0.25293E-012
   0.19321E-012   0.14979E-012   0.21060E-012
   0.65502E-013   0.14761E-012  -0.67813E-013
   0.12711E-012   0.16513E-012  -0.32972E-012
   0.42471E-012  -0.14731E-013  -0.14589E-012
   0.24008E-012  -0.33885E-013   0.16940E-013
  -0.19944E-012   0.15938E-014  -0.69521E-013
  -0.61379E-013   0.24196E-012   0.79456E-013
   0.21790E-012   0.38925E-012  -0.11297E-012
   0.89907E-013   0.60337E-013   0.10979E-012
  -0.13489E-013  -0.38192E-013   0.23103E-012
  -0.20576E-013   0.94837E-013   0.18241E-012
  -0.14401E-012   0.13587E-012  -0.33412E-013
   0.15185E-012   0.23583E-012   0.62565E-013
  -0.65754E-013   0.24762E-014   0.75190E-013
   0.23126E-013   0.44264E-012  -0.16911E-013
   0.15118E-012   0.47433E-013   0.41581E-014
  -0.10808E-012   0.15345E-012  -0.14563E-012
   0.12450E-012  -0.11884E-012  -0.12978E-012
   0.28315E-013  -0.53052E-013   0.24100E-012
   0.18657E-012   0.38965E-013   0.23462E-012
   0.25854E-013   0.22080E-013   0.53930E-012
   0.17553E-012   0.54678E-013  -0.14994E-012
  -0.40970E-013  -0.11412E-012   0.21008E-012
   0.19055E-012  -0.32110E-012   0.13571E-013
  -0.14932E-012   0.24603E-012  -0.30706E-012
  -0.14637E-012   0.10934E-012  -0.90821E-013
  -0.34659E-013   0.77653E-013  -0.80079E-013
  -0.14821E-012   0.20557E-012   0.78195E-013
   0.91819E-014   0.63730E-013   0.12985E-012
   0.29621E-013   0.23183E-013   0.17790E-012
   0.26929E-012  -0.10938E-012   0.11503E-012
   0.64753E-013   0.16054E-012   0.15639E-012
  -0.10892E-012  -0.17882E-012  -0.70877E-013
  -0.13453E-013  -0.49742E-013   0.21107E-013
  -0.15411E-013  -0.18910E-012  -0.85678E-013
  -0.22621E-013  -0.14973E-012  -0.96427E-013
  -0.17505E-012  -0.69065E-012   0.18785E-013
   0.13360E-012  -0.12634E-012  -0.56868E-013
   0.18402E-013   0.42253E-012   0.29116E-012
  -0.14756E-012  -0.59736E-013   0.17706E-012
  -0.25934E-012   0.37983E-012   0.18741E-012
  -0.72158E-013  -0.10863E-012   0.13719E-012
  -0.96732E-015  -0.17460E-012  -0.10220E-012
  -0.64043E-013  -0.25365E-012   0.36708E-012
   0.19892E-012  -0.25477E-013  -0.15403E-012
  -0.18059E-012   0.32062E-013  -0.16071E-012
  -0.39533E-012   0.55094E-013  -0.10967E-012
  -0.41302E-012   0.28430E-013   0.12774E-012
  -0.50957E-012   0.10044E-012  -0.12805E-012
  -0.13629E-012   0.71546E-013  -0.17116E-012
  -0.10913E-012  -0.15313E-012  -0.12076E-012
  -0.11747E-012   0.57492E-013  -0.11809E-012
  -0.16620E-013   0.44045E-013  -0.16895E-012
  -0.95994E-013   0.65873E-013  -0.65767E-013
  -0.15537E-012   0.22934E-013   0.49363E-013
  -0.75381E-013  -0.97094E-013  -0.48446E-013
  -0.35048E-012   0.34774E-012  -0.23723E-013
  -0.49734E-012   0.36875E-012  -0.58546E-013
  -0.34784E-012   0.17519E-012  -0.15674E-012
  -0.71194E-013  -0.35808E-013  -0.34272E-012
   0.79265E-013  -0.17888E-012  -0.28479E-012
   0.12050E-013   0.12086E-012   0.18855E-012
   0.96057E-013   0.28364E-012  -0.21938E-012
   0.12003E-012  -0.32936E-013  -0.69114E-013
  -0.79877E-013  -0.44160E-013  -0.15009E-013
  -0.22556E-012   0.26022E-012  -0.50335E-013
   0.23851E-013  -0.11086E-012   0.60231E-013
   0.20961E-012   0.11193E-012  -0.10459E-012
   0.10096E-012  -0.31744E-014   0.25334E-013
   0.20553E-012  -0.50753E-013  -0.51899E-013
  -0.40518E-013  -0.26851E-012  -0.17704E-012
   0.71724E-013  -0.96030E-014  -0.22596E-012
  -0.18713E-014  -0.23717E-012  -0.41711E-012
   0.19143E-012  -0.16400E-012  -0.20891E-012
   0.48322E-013  -0.20240E-012  -0.11845E-012
  -0.28659E-012  -0.13212E-012  -0.25499E-012
  -0.21018E-013   0.91766E-013  -0.79100E-013
   0.21428E-012   0.30515E-012  -0.87369E-013
  -0.19781E-013   0.73638E-013  -0.17585E-013
   0.47850E-013   0.26750E-013  -0.11900E-012
   0.12938E-012   0.47122E-013  -0.93538E-013
  -0.92974E-013  -0.10458E-014   0.17881E-013
  -0.13914E-012  -0.15367E-012  -0.16731E-012
  -0.47364E-013  -0.94286E-013   0.64085E-013
   0.14673E-012   0.35806E-013   0.13630E-012
   0.25103E-012  -0.20599E-013   0.15516E-012
  -0.16340E-012  -0.64754E-013   0.34761E-013
  -0.26691E-013   0.35904E-014   0.77617E-013
   0.16990E-012   0.12914E-012  -0.41303E-012
   0.36422E-013  -0.11345E-012  -0.65879E-014
   0.80411E-013  -0.10701E-012   0.10275E-013
  -0.29002E-012   0.93218E-014  -0.21349E-013
  -0.14811E-012   0.75705E-014  -0.16848E-012
  -0.29729E-012  -0.20220E-012  -0.79232E-013
  -0.25823E-012  -0.15773E-012  -0.88694E-013
  -0.33187E-012   0.13296E-012   0.15332E-012
  -0.26049E-012   0.28755E-012  -0.88854E-013
   0.12767E-012  -0.28125E-012   0.13220E-012
  -0.27950E-012   0.38143E-013  -0.11513E-012
  -0.24446E-013   0.12881E-012   0.24637E-012
  -0.21306E-012   0.49992E-013  -0.10398E-012
   0.59031E-013  -0.42215E-013  -0.20064E-013
  -0.13785E-012  -0.80280E-013   0.36478E-014
   0.48736E-013  -0.58759E-014  -0.12405E-012
  -0.29316E-013   0.33445E-012  -0.71091E-013
   0.19942E-014   0.37317E-013   0.13679E-012
   0.94394E-013  -0.82979E-013  -0.25931E-012
   0.12499E-012   0.12116E-012   0.13147E-012
  -0.13848E-012   0.16519E-012   0.19842E-013
   0.53827E-013   0.76490E-013   0.13292E-012
   0.96326E-013   0.15103E-012   0.41618E-013
   0.12570E-012   0.65791E-013   0.20706E-012
  -0.73211E-013  -0.49376E-013   0.48248E-013
   0.27077E-013  -0.32580E-013  -0.13358E-013
  -0.59205E-013  -0.84560E-013   0.18989E-012
   0.40607E-013   0.12398E-013  -0.16663E-014
   0.14514E-012   0.27798E-012   0.11056E-012
   0.25436E-012   0.53509E-013   0.37197E-013
  -0.60915E-014   0.25513E-012   0.44203E-013
   0.12110E-012   0.14011E-012   0.17444E-012
  -0.83174E-013  -0.29433E-014   0.10764E-012
   0.30912E-012   0.10160E-012  -0.15024E-012
   0.19698E-012  -0.71540E-013   0.48216E-013
  -0.15322E-012  -0.91166E-013   0.27028E-012
   0.63472E-013   0.14820E-012  -0.98543E-013
   0.15130E-013  -0.53115E-013  -0.10768E-012
  -0.12744E-012  -0.18187E-012   0.17086E-012
  -0.70986E-013  -0.26842E-012   0.17388E-012
  -0.49440E-014   0.13198E-012   0.11705E-012
  -0.54829E-013   0.15195E-012   0.43427E-013
   0.80387E-013  -0.23753E-012   0.12835E-012
  -0.10742E-012  -0.20249E-012   0.18202E-012
  -0.35799E-013  -0.11374E-012   0.21835E-012
  -0.11225E-012  -0.14622E-012   0.33868E-013
  -0.75846E-013  -0.11662E-012   0.10802E-012
   0.25519E-013  -0.16437E-012   0.11265E-012
  -0.97447E-013  -0.80148E-013   0.23985E-012
  -0.19366E-013  -0.64035E-013  -0.24816E-012
  -0.28980E-012  -0.30016E-013  -0.19522E-012
  -0.14445E-012  -0.94634E-013  -0.70541E-013
  -0.14591E-012   0.40614E-012  -0.18325E-013
  -0.20754E-013  -0.13407E-012   0.87064E-013
   0.35385E-013   0.10066E-012  -0.12436E-012
  -0.10255E-012   0.72566E-013   0.55662E-013
  -0.13624E-012   0.97200E-014  -0.31788E-012
   0.12692E-012   0.61759E-013  -0.86028E-013
   0.22264E-012   0.65815E-013   0.14704E-012
   0.30838E-013   0.90180E-013   0.26101E-013
  -0.36152E-012  -0.12015E-012  -0.16352E-012
  -0.31153E-012   0.18833E-012  -0.29305E-013
   0.97351E-013  -0.81440E-013  -0.11995E-012
   0.14544E-013   0.64057E-013  -0.12606E-012
   0.15106E-012   0.21012E-012  -0.46854E-014
  -0.67174E-013  -0.10122E-012  -0.37600E-013
  -0.59881E-013   0.27597E-012   0.22095E-013
  -0.22698E-012  -0.14079E-013  -0.95501E-013
  -0.12790E-012   0.19213E-012   0.91948E-013
  -0.80324E-013   0.12830E-012  -0.10298E-012
  -0.99665E-013  -0.72871E-013   0.12667E-012
   0.29927E-012   0.29544E-013  -0.29406E-012
   0.23229E-012   0.10056E-012   0.58388E-013
   0.17955E-013   0.70219E-013   0.47792E-013
  -0.26224E-012   0.32211E-013   0.34893E-013
  -0.56785E-013   0.24577E-012  -0.17769E-013
  -0.35992E-012   0.11345E-012  -0.27568E-013
  -0.58521E-012  -0.64743E-012   0.24007E-012
   0.41578E-013   0.81681E-013   0.89526E-013
   0.15059E-012  -0.19527E-012  -0.24872E-012
  -0.11646E-012   0.22029E-012   0.71232E-013
   0.21024E-012  -0.23862E-012   0.14940E-012
   0.17429E-013  -0.60139E-013   0.42661E-013
  -0.28258E-012  -0.77338E-013  -0.95559E-013
  -0.25477E-012  -0.18795E-012  -0.10008E-013
  -0.33995E-013  -0.67848E-013  -0.12394E-012
  -0.38704E-012   0.12194E-012  -0.13446E-013
   0.10214E-012  -0.12412E-012  -0.13161E-012
  -0.47685E-013  -0.98216E-013   0.14331E-012
   0.99282E-013   0.18594E-012  -0.54469E-013
   0.46163E-013   0.38865E-013  -0.88626E-013
  -0.21126E-012  -0.27242E-013  -0.42322E-013
  -0.17665E-012  -0.48039E-012   0.43104E-014
  -0.25445E-012  -0.35722E-012   0.40670E-013
   0.22634E-012   0.85043E-014  -0.30812E-012
  -0.36053E-013   0.21232E-012  -0.31368E-013
   0.68197E-013  -0.57392E-013   0.23629E-013
  -0.21276E-012   0.30159E-012  -0.26572E-012
   0.71530E-013  -0.21216E-012   0.12217E-012
  -0.27649E-012   0.14807E-012  -0.22218E-012
   0.47804E-012   0.37194E-012  -0.76515E-014
  -0.52045E-013   0.28720E-012  -0.11874E-012
  -0.76445E-013  -0.16975E-012  -0.19395E-013
   0.70047E-013  -0.33759E-013  -0.86642E-013
   0.11447E-012   0.86725E-014   0.59786E-013
  -0.15449E-012  -0.24577E-012  -0.69992E-013
  -0.34346E-012  -0.12356E-012  -0.11663E-012
  -0.19307E-012  -0.14228E-012  -0.13538E-012
  -0.60364E-013  -0.16645E-012  -0.12300E-013
  -0.23658E-012  -0.18082E-012  -0.64568E-013
   0.18665E-012  -0.87747E-014  -0.51720E-013
   0.16119E-012   0.22659E-012   0.27881E-012
   0.19346E-012   0.32331E-012  -0.30693E-013
   0.78184E-012   0.15180E-012   0.13847E-012
   0.22688E-012   0.32372E-012   0.15669E-012
  -0.15184E-012  -0.72810E-013   0.24792E-012
   0.34549E-013  -0.44690E-013  -0.24187E-012
  -0.48471E-013  -0.13416E-012  -0.60165E-012
  -0.12093E-012   0.61145E-013  -0.21709E-012
  -0.98850E-014  -0.18149E-012   0.72112E-013
   0.14968E-012  -0.24676E-012   0.17979E-012
  -0.10616E-013  -0.79863E-013  -0.26441E-013
  -0.14402E-013  -0.17108E-012   0.58488E-013
  -0.12492E-012   0.26880E-012  -0.64862E-013
  -0.49908E-013   0.16296E-012  -0.10608E-012
   0.18191E-012  -0.23874E-012   0.25925E-012
   0.11217E-013   0.12507E-012   0.97363E-013
   0.28942E-013   0.58764E-013   0.19869E-012
   0.15397E-012  -0.34341E-013  -0.46824E-013
   0.42932E-012  -0.22716E-012   0.57853E-013
   0.15228E-012   0.14210E-012   0.12587E-012
   0.61192E-013   0.15507E-012  -0.56775E-013
   0.16862E-012  -0.10363E-012   0.52369E-013
  -0.23779E-012  -0.41183E-013  -0.10833E-012
   0.16204E-012  -0.71066E-013  -0.27839E-012
  -0.32060E-012   0.30968E-013  -0.11427E-012
  -0.50632E-013   0.17965E-012  -0.90064E-013
   0.17932E-012  -0.20277E-012  -0.15174E-012
  -0.12056E-012   0.97382E-013   0.15985E-012
   0.10905E-012   0.25832E-013  -0.46924E-013
  -0.21133E-012   0.77961E-013   0.76771E-013
   0.51528E-014  -0.43917E-013  -0.13992E-012
   0.40033E-013   0.51670E-013   0.25740E-012
   0.18560E-012   0.81819E-015  -0.50036E-013
   0.15059E-012  -0.35498E-013  -0.32142E-012
   0.59881E-013  -0.24017E-013  -0.41926E-012
  -0.33125E-013  -0.14814E-013   0.49109E-013
  -0.10286E-012   0.63574E-015   0.29375E-012
  -0.20584E-012  -0.71172E-013   0.29715E-012
  -0.24595E-012  -0.13015E-012   0.11866E-012
   0.17119E-012   0.14101E-012   0.14638E-012
   0.14103E-012   0.29696E-012  -0.17028E-012
   0.55513E-013   0.45700E-012   0.23707E-012
   0.52654E-013  -0.38135E-013  -0.35226E-013
   0.79723E-013   0.98155E-013  -0.35551E-012
   0.87039E-013   0.69686E-013   0.85188E-013
   0.58464E-014  -0.79203E-013  -0.46918E-013
  -0.45043E-012   0.85289E-013   0.46586E-013
   0.20635E-012  -0.56550E-013   0.15445E-012
  -0.91834E-013  -0.33403E-013   0.28791E-012
   0.44044E-012   0.29729E-012   0.14855E-012
   0.10715E-012  -0.10913E-012  -0.26188E-012
   0.50282E-013   0.17125E-012  -0.21205E-013
  -0.74769E-013   0.21639E-012   0.21541E-012
  -0.76640E-013   0.11461E-012   0.32575E-012
  -0.19983E-012  -0.10401E-012  -0.11342E-012
  -0.39820E-013   0.75723E-013  -0.56966E-015
  -0.55729E-013   0.10553E-012   0.15807E-012
   0.31892E-012   0.88919E-013   0.11962E-012
   0.16519E-013  -0.21160E-012   0.81801E-013
  -0.31324E-013   0.22854E-012  -0.90695E-013
   0.63133E-013   0.22103E-012   0.22150E-012
   0.59640E-013   0.49309E-013  -0.26201E-012
  -0.28753E-012   0.44852E-013  -0.15343E-012
  -0.11195E-012   0.21687E-012   0.32279E-013
   0.72506E-013   0.16150E-012  -0.10689E-012
   0.15751E-012   0.42627E-013  -0.43816E-013
   0.90114E-013   0.81607E-013  -0.33251E-013
  -0.37090E-012   0.47582E-012  -0.84232E-013
   0.19709E-012   0.48961E-012   0.14841E-012
   0.19972E-012   0.61511E-013   0.18543E-012
  -0.12432E-012   0.50796E-012   0.28338E-012
   0.21364E-012  -0.52246E-013  -0.50425E-013
   0.14239E-012   0.13273E-012  -0.89745E-013
   0.15288E-012  -0.17064E-012  -0.94979E-013
  -0.19470E-013  -0.12721E-012   0.53421E-013
   0.97006E-013  -0.18968E-012  -0.19066E-014
   0.57035E-013  -0.43980E-014  -0.19575E-012
   0.14268E-013  -0.20333E-012  -0.40946E-013
  -0.22895E-012   0.94911E-013  -0.19164E-012
  -0.26584E-012   0.80841E-013   0.72817E-013
   0.36478E-012   0.17615E-012  -0.10042E-012
   0.27979E-012  -0.21587E-012  -0.39973E-013
   0.36067E-012  -0.15456E-012   0.14059E-012
   0.60306E-015   0.65125E-013   0.15687E-012
   0.11201E-012  -0.11492E-012  -0.40373E-012
  -0.20538E-012   0.10612E-012   0.22033E-013
   0.15703E-012  -0.41954E-013  -0.47815E-013
  -0.14077E-012  -0.16055E-012  -0.15740E-012
  -0.10401E-012  -0.18906E-012  -0.92025E-013
  -0.24695E-012   0.95019E-013   0.15003E-012
   0.20113E-013   0.75901E-013  -0.10273E-012
  -0.41905E-013   0.14631E-012  -0.20856E-012
  -0.26571E-012   0.14603E-012   0.14214E-013
  -0.24946E-013   0.61378E-013   0.43489E-013
   0.10353E-012   0.97988E-013   0.24874E-012
  -0.33725E-013  -0.43118E-013  -0.12481E-012
   0.86039E-013   0.99654E-013   0.12252E-012
   0.16755E-012   0.20957E-012  -0.37763E-013
   0.22617E-012   0.17933E-012  -0.11608E-012
   0.18905E-012  -0.21815E-012  -0.11792E-012
  -0.44540E-013  -0.14175E-012  -0.10331E-013
  -0.24281E-012   0.61270E-013   0.23676E-012
   0.57643E-013  -0.20249E-012  -0.13745E-012
  -0.12211E-012   0.14607E-012  -0.98751E-013
  -0.21628E-012   0.31395E-013  -0.21427E-012
   0.89521E-014   0.55803E-013   0.19277E-012
   0.20515E-012  -0.15983E-012  -0.88108E-013
   0.16750E-012  -0.19529E-013   0.14235E-012
   0.77484E-013   0.79147E-013   0.15141E-012
   0.46387E-012   0.36618E-013   0.31680E-012
  -0.70117E-013  -0.15390E-012   0.21102E-012
   0.20037E-012   0.46436E-012  -0.22670E-013
   0.78937E-013   0.18662E-012   0.51306E-013
  -0.47659E-013   0.44883E-013   0.13202E-012
   0.36358E-013  -0.18425E-012  -0.68715E-013
   0.25431E-012   0.11894E-012   0.59397E-013
   0.12616E-012   0.57067E-012   0.11831E-014
  -0.80308E-014  -0.11619E-012  -0.24996E-012
   0.93543E-013   0.13126E-012   0.17105E-012
  -0.19182E-012  -0.26168E-013   0.14318E-012
   0.86852E-014   0.54831E-013   0.11813E-012
   0.40955E-013  -0.74736E-013  -0.12978E-012
  -0.10784E-012  -0.35235E-012   0.13648E-012
   0.25464E-012   0.14587E-012   0.66190E-013
  -0.65773E-013   0.46871E-013  -0.21599E-012
   0.70777E-013   0.14113E-014   0.46787E-013
  -0.24147E-012   0.19893E-013  -0.70358E-013
  -0.34053E-013  -0.26859E-012  -0.36391E-014
  -0.14418E-012   0.28287E-012  -0.74253E-013
  -0.15313E-012  -0.75154E-014   0.13898E-014
   0.10776E-012   0.17271E-014   0.16251E-012
  -0.19535E-012  -0.96081E-013  -0.14342E-012
  -0.93955E-013  -0.15697E-012   0.75009E-013
  -0.16084E-012   0.18496E-015  -0.30028E-013
   0.73276E-013  -0.35992E-012   0.22409E-012
  -0.41134E-013   0.32718E-012   0.30234E-012
   0.10557E-012  -0.67952E-013   0.62146E-013
   0.10804E-012  -0.75871E-014   0.34536E-012
  -0.20085E-012  -0.15644E-012  -0.35197E-012
   0.51703E-013   0.25960E-012  -0.23861E-012
   0.35414E-013   0.25674E-012  -0.15392E-012
   0.39609E-013   0.89277E-013   0.11161E-012
  -0.14431E-012  -0.20845E-012  -0.24609E-013
  -0.54963E-013   0.31739E-012  -0.17153E-012
  -0.20974E-012  -0.24743E-013   0.17253E-012
   0.96393E-013   0.12229E-012  -0.20048E-012
  -0.17057E-012  -0.12690E-012  -0.10422E-012
  -0.19402E-012  -0.97374E-013  -0.15964E-013
  -0.19377E-012   0.10783E-012  -0.12792E-012
  -0.20456E-013  -0.12013E-012  -0.25601E-012
  -0.20920E-013   0.42108E-013  -0.99112E-013
  -0.14309E-012   0.15881E-012   0.12693E-015
  -0.98408E-014   0.99941E-013  -0.70027E-013
  -0.14016E-012   0.54151E-013  -0.51334E-013
  -0.12247E-012   0.30549E-012  -0.71140E-013
   0.30223E-013  -0.13264E-012   0.23734E-012
  -0.29444E-013   0.70806E-013   0.28020E-012
  -0.17249E-012  -0.36713E-013  -0.68480E-013
  -0.14124E-013  -0.24012E-012  -0.15116E-013
  -0.21964E-012  -0.57203E-014  -0.22638E-012
   0.18391E-012  -0.38352E-013  -0.23108E-012
   0.53591E-014   0.20928E-013  -0.12247E-012
   0.14898E-012  -0.17643E-013  -0.13263E-012
  -0.16438E-012  -0.86729E-014   0.66674E-013
  -0.53132E-013   0.58031E-013   0.24444E-013
  -0.43097E-012   0.73185E-013   0.45147E-013
   0.12733E-012   0.71404E-013   0.87179E-013
   0.49486E-012  -0.79292E-013   0.33969E-013
  -0.48891E-013   0.22402E-012   0.71450E-013
   0.17638E-012  -0.58710E-013   0.65410E-013
   0.28636E-012  -0.12879E-012  -0.82730E-013
  -0.10364E-013   0.14846E-012  -0.13400E-012
   0.36593E-012  -0.80111E-013   0.18565E-012
  -0.55415E-013  -0.69628E-013  -0.52781E-013
  -0.87648E-013   0.87835E-013  -0.17706E-012
   0.10892E-013  -0.28632E-012   0.25791E-012
   0.12451E-012   0.24338E-012  -0.23922E-014
  -0.85418E-013  -0.28975E-012  -0.25730E-013
  -0.11310E-013  -0.16872E-012  -0.22294E-012
   0.28257E-013  -0.33878E-012   0.81755E-013
  -0.13600E-012  -0.25648E-013  -0.40172E-012
  -0.19658E-012   0.24623E-013   0.12893E-013
   0.18988E-012  -0.57199E-012   0.66773E-013
   0.99426E-013  -0.45577E-012  -0.39020E-012
   0.40980E-012   0.16537E-013  -0.43150E-013
   0.40394E-012  -0.23222E-012  -0.10518E-012
   0.12613E-012   0.16957E-012   0.35142E-013
   0.11575E-012  -0.77220E-012   0.20089E-013
  -0.76587E-013  -0.40602E-012   0.64337E-013
   0.34566E-013   0.99899E-013   0.47404E-012
   0.13243E-012  -0.34022E-013   0.17393E-013
  -0.30975E-013   0.13099E-012   0.12011E-012
  -0.11464E-012   0.21282E-012   0.44714E-012
  -0.11377E-012  -0.36941E-012  -0.77235E-013
  -0.41502E-013   0.22866E-013   0.15046E-012
   0.30320E-012  -0.50188E-012   0.46105E-013
  -0.14786E-012  -0.18257E-012   0.54984E-013
  -0.16511E-012   0.63061E-013   0.14818E-012
  -0.12221E-013   0.19716E-012  -0.27234E-012
  -0.29821E-012  -0.34977E-012   0.36911E-013
   0.21273E-012  -0.26960E-012   0.93277E-013
  -0.13395E-012   0.23732E-012   0.24560E-012
  -0.65408E-013   0.22124E-012  -0.14488E-012
   0.64284E-014  -0.32675E-013  -0.53329E-012
   0.24190E-013  -0.99113E-013   0.59502E-013
   0.18965E-012  -0.97279E-013  -0.44103E-012
   0.69772E-013  -0.40409E-012  -0.16932E-012
   0.10521E-012   0.45844E-013  -0.18645E-012
   0.20858E-012   0.56039E-013   0.11187E-012
   0.13216E-012  -0.14137E-012   0.10120E-012
   0.17535E-012  -0.80136E-013   0.16216E-012
  -0.35981E-013  -0.15307E-012   0.33965E-013
   0.10439E-012  -0.59800E-013   0.24945E-012
  -0.30632E-012   0.31243E-012   0.14480E-013
  -0.15842E-013  -0.26416E-012  -0.32519E-012
   0.32412E-012  -0.50802E-012   0.32780E-012
  -0.14816E-013  -0.10048E-012  -0.18396E-012
   0.14835E-012  -0.10759E-012  -0.27221E-012
  -0.20142E-013   0.68783E-013   0.12988E-012
   0.34044E-013  -0.94738E-013  -0.80392E-013
   0.23114E-013   0.38696E-013  -0.25087E-013
  -0.12585E-012   0.29438E-012   0.18530E-012
  -0.40526E-013  -0.34474E-012   0.13738E-012
   0.11718E-012   0.15883E-012   0.43369E-013
   0.28485E-012   0.18616E-012   0.18162E-012
  -0.13866E-012   0.22164E-012   0.35023E-013
  -0.29031E-012  -0.21525E-013  -0.15465E-012
   0.21945E-012   0.12961E-012  -0.14668E-012
   0.95423E-013  -0.21262E-014  -0.15053E-014
   0.24086E-013   0.46814E-014   0.31392E-012
   0.14289E-012   0.61173E-013  -0.38160E-013
   0.31547E-013   0.41220E-014   0.20463E-012
   0.85626E-013   0.34347E-013  -0.11016E-012
   0.14823E-012   0.11059E-012  -0.12499E-012
   0.67927E-013   0.21647E-013  -0.21988E-012
   0.62638E-013   0.17411E-013   0.14869E-012
  -0.35203E-012   0.37521E-012   0.85901E-013
  -0.17799E-012   0.16054E-012  -0.10243E-013
  -0.22426E-012   0.89207E-013  -0.51518E-013
  -0.18583E-012  -0.64268E-013  -0.18586E-012
  -0.77675E-013  -0.25147E-012  -0.60040E-013
  -0.91666E-013  -0.12835E-012   0.36754E-012
  -0.14830E-012   0.17672E-013   0.73260E-013
   0.17990E-012   0.19415E-012  -0.21276E-013
  -0.31480E-012   0.42105E-012  -0.47829E-013
  -0.19318E-012   0.19051E-012   0.40211E-014
   0.13523E-012  -0.13915E-012   0.95518E-013
  -0.26918E-013  -0.19787E-012   0.44750E-013
  -0.31374E-013   0.26989E-012   0.10482E-012
  -0.18709E-012   0.17692E-012  -0.29049E-012
   0.45149E-013   0.58931E-013  -0.36695E-013
   0.11933E-012   0.38618E-013   0.37402E-012
  -0.35928E-012  -0.17440E-012  -0.36590E-013
  -0.34274E-012  -0.18310E-013   0.82972E-013
   0.54461E-013  -0.31684E-013  -0.43939E-013
   0.69727E-013   0.55695E-013   0.20720E-014
   0.98448E-015  -0.15849E-012   0.19945E-013
   0.37720E-012  -0.44119E-013  -0.15472E-012
   0.36508E-012  -0.11280E-012  -0.14697E-012
  -0.17074E-012  -0.11693E-013   0.57836E-013
  -0.35043E-012   0.27553E-012   0.12003E-012
  -0.34614E-012   0.54685E-013  -0.64619E-013
   0.45024E-013   0.10642E-012  -0.66949E-013
  -0.20304E-012   0.12269E-014   0.87812E-013
   0.10969E-012  -0.55713E-013  -0.12123E-012
  -0.62377E-013  -0.32571E-012  -0.43046E-012
   0.14613E-012   0.22178E-013   0.26408E-012
   0.32537E-012   0.25617E-012  -0.11970E-012
  -0.17753E-012  -0.26765E-013   0.13290E-013
   0.12335E-012  -0.26986E-012  -0.21107E-012
  -0.22192E-012   0.82460E-013  -0.15283E-012
   0.33163E-012   0.32335E-013   0.20108E-012
   0.16813E-012   0.66113E-013  -0.36429E-012
   0.36936E-013  -0.21146E-012   0.97690E-013
  -0.30277E-012  -0.36535E-012  -0.27193E-013
   0.35234E-012   0.79445E-013   0.11169E-012
   0.11973E-012  -0.98108E-013  -0.27977E-012
  -0.96140E-013   0.11057E-012  -0.50386E-012
  -0.28783E-012  -0.18212E-013  -0.28493E-012
   0.12576E-012   0.19312E-012  -0.21042E-012
   0.42256E-013  -0.25056E-012  -0.12155E-012
   0.37760E-012  -0.93081E-014   0.64698E-013
   0.15006E-012   0.10915E-012  -0.19934E-012
   0.16541E-013   0.45865E-012   0.71160E-013
  -0.71241E-013   0.58178E-013   0.43563E-012
  -0.37274E-012   0.68251E-012  -0.18944E-012
   0.11134E-013   0.28459E-012   0.55060E-013
  -0.12618E-012   0.82491E-013  -0.35004E-013
  -0.47430E-013   0.14414E-012   0.39363E-013
  -0.97349E-013  -0.17820E-012   0.13954E-012
   0.31223E-013  -0.93093E-014   0.27936E-012
   0.11441E-012  -0.35345E-012  -0.83685E-014
  -0.13354E-012  -0.15372E-012   0.12404E-012
  -0.71198E-014  -0.21363E-012  -0.21167E-012
   0.66030E-013   0.19252E-014  -0.11406E-012
  -0.68912E-013  -0.12697E-012  -0.25735E-013
   0.39270E-013  -0.69399E-013   0.13901E-012
  -0.19345E-012  -0.47176E-012   0.33728E-012
   0.23498E-013  -0.24162E-012   0.11872E-012
   0.29628E-012   0.48401E-012   0.55050E-013
  -0.58005E-013  -0.13483E-012   0.17541E-012
  -0.19777E-012  -0.57442E-013  -0.73823E-013
   0.53386E-013  -0.33304E-013  -0.44164E-012
  -0.22982E-012   0.27200E-013   0.33350E-013
   0.20029E-012  -0.64300E-013   0.16215E-012
  -0.22219E-013  -0.80559E-013  -0.24066E-012
   0.33355E-013  -0.17866E-013  -0.26655E-012
   0.35535E-012   0.34543E-012  -0.13551E-012
  -0.14507E-013   0.16586E-012   0.58901E-013
  -0.22913E-012   0.18063E-012   0.23346E-012
   0.33273E-013   0.14914E-012   0.28408E-012
   0.12757E-013  -0.16589E-012   0.14599E-012
   0.72696E-013  -0.17747E-012   0.15301E-012
  -0.48728E-012   0.35621E-012   0.12911E-012
   0.10501E-012  -0.17288E-012   0.30992E-012
   0.21298E-013  -0.18090E-012   0.22837E-012
  -0.22317E-012   0.27619E-012  -0.15140E-013
  -0.11320E-012  -0.19142E-012   0.81374E-013
  -0.11118E-012   0.86734E-013  -0.18762E-012
  -0.22039E-012   0.85241E-013   0.44930E-013
   0.34752E-012   0.62294E-013  -0.19709E-012
   0.28933E-012  -0.22914E-012  -0.21884E-012
   0.10135E-012  -0.45771E-014   0.38751E-012
   0.64200E-013   0.50559E-013   0.52020E-012
   0.21132E-012  -0.17436E-013  -0.47152E-013
   0.16747E-012  -0.32829E-013  -0.21119E-012
   0.71185E-013   0.18353E-012   0.21240E-013
   0.12786E-013  -0.15660E-012   0.79466E-013
   0.60621E-012   0.61542E-012   0.79740E-013
   0.13196E-013   0.40031E-012  -0.12781E-013
   0.99722E-013  -0.20125E-012   0.34165E-013
   0.41227E-012   0.19448E-012   0.98882E-013
   0.21083E-012   0.34825E-012   0.28430E-012
  -0.24801E-013  -0.13333E-012  -0.31475E-012
  -0.31038E-012  -0.35643E-012   0.42202E-013
  -0.85532E-013   0.69797E-013   0.27219E-013
   0.11970E-012   0.21722E-012   0.13653E-012
   0.10572E-012   0.51083E-012   0.11141E-013
   0.15990E-012   0.47221E-012  -0.18436E-013
  -0.30581E-013   0.13475E-012   0.86854E-013
  -0.10962E-012   0.39962E-013  -0.12909E-012
  -0.57453E-013   0.16285E-012   0.39726E-012
   0.13253E-012   0.61496E-013   0.86697E-013
  -0.52425E-013   0.45598E-013   0.13957E-012
  -0.36871E-012   0.75070E-012  -0.66950E-013
  -0.13816E-012   0.54164E-012  -0.45181E-013
  -0.15269E-012  -0.10386E-012  -0.44368E-013
  -0.58239E-014   0.35564E-013  -0.35444E-012
  -0.40054E-013  -0.27908E-013   0.54825E-013
  -0.86535E-014   0.37688E-014  -0.23665E-012
  -0.10061E-012  -0.84984E-013   0.81472E-014
   0.53936E-013   0.23872E-013   0.12889E-012
  -0.84172E-013   0.37255E-013  -0.42729E-012
   0.59351E-013  -0.33894E-012   0.12327E-012
  -0.90942E-013  -0.39607E-013   0.28612E-012
   0.32830E-012   0.26523E-012  -0.11423E-012
TENSORS stress          double
   0.00000E+000   0.00000E+000   0.00000E+000   0.00000E+000   0.00000E+000   0.00000E+000   0.00000E+000   0.00000E+000   0.00000E+000
   0.00000E+000   0.00000E+000   0.00000E+000   0.00000E+000   0.00000E+000   0.00000E+000   0.00000E+000   0.00000E+000   0.00000E+000
   0.00000E+000   0.00000E+000   0.00000E+000   0.00000E+000   0.00000E+000   0.00000E+000   0.00000E+000   0.00000E+000   0.00000E+000
   0.00000E+000   0.00000E+000   0.00000E+000   0.00000E+000   0.00000E+000   0.00000E+000   0.00000E+000   0.00000E+000   0.00000E+000
   0.00000E+000   0.00000E+000   0.00000E+000   0.00000E+000   0.00000E+000   0.00000E+000   0.00000E+000   0.00000E+000   0.00000E+000
   0.00000E+000   0.00000E+000   0.00000E+000   0.00000E+000   0.00000E+000   0.00000E+000   0.00000E+000   0.00000E+000   0.00000E+000
   0.00000E+000   0.00000E+000   0.00000E+000   0.00000E+000   0.00000E+000   0.00000E+000   0.00000E+000   0.00000E+000   0.00000E+000
   0.00000E+000   0.00000E+000   0.00000E+000   0.00000E+000   0.00000E+000   0.00000E+000   0.00000E+000   0.00000E+000   0.00000E+000
   0.00000E+000   0.00000E+000   0.00000E+000   0.00000E+000   0.00000E+000   0.00000E+000   0.00000E+000   0.00000E+000   0.00000E+000
   0.00000E+000   0.00000E+000   0.00000E+000   0.00000E+000   0.00000E+000   0.00000E+000   0.00000E+000   0.00000E+000   0.00000E+000
   0.00000E+000   0.00000E+000   0.00000E+000   0.00000E+000   0.00000E+000   0.00000E+000   0.00000E+000   0.00000E+000   0.00000E+000
   0.00000E+000   0.00000E+000   0.00000E+000   0.00000E+000   0.00000E+000   0.00000E+000   0.00000E+000   0.00000E+000   0.00000E+000
   0.00000E+000   0.00000E+000   0.00000E+000   0.00000E+000   0.00000E+000   0.00000E+000   0.00000E+000   0.00000E+000   0.00000E+000
   0.00000E+000   0.00000E+000   0.00000E+000   0.00000E+000   0.00000E+000   0.00000E+000   0.00000E+000   0.00000E+000   0.00000E+000
   0.00000E+000   0.00000E+000   0.00000E+000   0.00000E+000   0.00000E+000   0.00000E+000   0.00000E+000   0.00000E+000   0.00000E+000
   0.00000E+000   0.00000E+000   0.00000E+000   0.00000E+000   0.00000E+000   0.00000E+000   0.00000E+000   0.00000E+000   0.00000E+000
   0.00000E+000   0.00000E+000   0.00000E+000   0.00000E+000   0.00000E+000   0.00000E+000   0.00000E+000   0.00000E+000   0.00000E+000
   0.00000E+000   0.00000E+000   0.00000E+000   0.00000E+000   0.00000E+000   0.00000E+000   0.00000E+000   0.00000E+000   0.00000E+000
   0.00000E+000   0.00000E+000   0.00000E+000   0.00000E+000   0.00000E+000   0.00000E+000   0.00000E+000   0.00000E+000   0.00000E+000
   0.00000E+000   0.00000E+000   0.00000E+000   0.00000E+000   0.00000E+000   0.00000E+000   0.00000E+000   0.00000E+000   0.00000E+000
   0.00000E+000   0.00000E+000   0.00000E+000   0.00000E+000   0.00000E+000   0.00000E+000   0.00000E+000   0.00000E+000   0.00000E+000
   0.00000E+000   0.00000E+000   0.00000E+000   0.00000E+000   0.00000E+000   0.00000E+000   0.00000E+000   0.00000E+000   0.00000E+000
   0.00000E+000   0.00000E+000   0.00000E+000   0.00000E+000   0.00000E+000   0.00000E+000   0.00000E+000   0.00000E+000   0.00000E+000
   0.00000E+000   0.00000E+000   0.00000E+000   0.00000E+000   0.00000E+000   0.00000E+000   0.00000E+000   0.00000E+000   0.00000E+000
   0.00000E+000   0.00000E+000   0.00000E+000   0.00000E+000   0.00000E+000   0.00000E+000   0.00000E+000   0.00000E+000   0.00000E+000
   0.00000E+000   0.00000E+000   0.00000E+000   0.00000E+000   0.00000E+000   0.00000E+000   0.00000E+000   0.00000E+000   0.00000E+000
   0.00000E+000   0.00000E+000   0.00000E+000   0.00000E+000   0.00000E+000   0.00000E+000   0.00000E+000   0.00000E+000   0.00000E+000
   0.00000E+000   0.00000E+000   0.00000E+000   0.00000E+000   0.00000E+000   0.00000E+000   0.00000E+000   0.00000E+000   0.00000E+000
   0.00000E+000   0.00000E+000   0.00000E+000   0.00000E+000   0.00000E+000   0.00000E+000   0.00000E+000   0.00000E+000   0.00000E+000
   0.00000E+000   0.00000E+000   0.00000E+000   0.00000E+000   0.00000E+000   0.00000E+000   0.00000E+000   0.00000E+000   0.00000E+000
   0.00000E+000   0.00000E+000   0.00000E+000   0.00000E+000   0.00000E+000   0.00000E+000   0.00000E+000   0.00000E+000   0.00000E+000
   0.00000E+000   0.00000E+000   0.00000E+000   0.00000E+000   0.00000E+000   0.00000E+000   0.00000E+000   0.00000E+000   0.00000E+000
   0.00000E+000   0.00000E+000   0.00000E+000   0.00000E+000   0.00000E+000   0.00000E+000   0.00000E+000   0.00000E+000   0.00000E+000
   0.00000E+000   0.00000E+000   0.00000E+000   0.00000E+000   0.00000E+000   0.00000E+000   0.00000E+000   0.00000E+000   0.00000E+000
   0.00000E+000   0.00000E+000   0.00000E+000   0.00000E+000   0.00000E+000   0.00000E+000   0.00000E+000   0.00000E+000   0.00000E+000
   0.00000E+000   0.00000E+000   0.00000E+000   0.00000E+000   0.00000E+000   0.00000E+000   0.00000E+000   0.00000E+000   0.00000E+000
   0.00000E+000   0.00000E+000   0.00000E+000   0.00000E+000   0.00000E+000   0.00000E+000   0.00000E+000   0.00000E+000   0.00000E+000
   0.00000E+000   0.00000E+000   0.00000E+000   0.00000E+000   0.00000E+000   0.00000E+000   0.00000E+000   0.00000E+000   0.00000E+000
   0.00000E+000   0.00000E+000   0.00000E+000   0.00000E+000   0.00000E+000   0.00000E+000   0.00000E+000   0.00000E+000   0.00000E+000
   0.00000E+000   0.00000E+000   0.00000E+000   0.00000E+000   0.00000E+000   0.00000E+000   0.00000E+000   0.00000E+000   0.00000E+000
   0.00000E+000   0.00000E+000   0.00000E+000   0.00000E+000   0.00000E+000   0.00000E+000   0.00000E+000   0.00000E+000   0.00000E+000
   0.00000E+000   0.00000E+000   0.00000E+000   0.00000E+000   0.00000E+000   0.00000E+000   0.00000E+000   0.00000E+000   0.00000E+000
   0.00000E+000   0.00000E+000   0.00000E+000   0.00000E+000   0.00000E+000   0.00000E+000   0.00000E+000   0.00000E+000   0.00000E+000
   0.00000E+000   0.00000E+000   0.00000E+000   0.00000E+000   0.00000E+000   0.00000E+000   0.00000E+000   0.00000E+000   0.00000E+000
   0.00000E+000   0.00000E+000   0.00000E+000   0.00000E+000   0.00000E+000   0.00000E+000   0.00000E+000   0.00000E+000   0.00000E+000
   0.00000E+000   0.00000E+000   0.00000E+000   0.00000E+000   0.00000E+000   0.00000E+000   0.00000E+000   0.00000E+000   0.00000E+000
   0.00000E+000   0.00000E+000   0.00000E+000   0.00000E+000   0.00000E+000   0.00000E+000   0.00000E+000   0.00000E+000   0.00000E+000
   0.00000E+000   0.00000E+000   0.00000E+000   0.00000E+000   0.00000E+000   0.00000E+000   0.00000E+000   0.00000E+000   0.00000E+000
   0.00000E+000   0.00000E+000   0.00000E+000   0.00000E+000   0.00000E+000   0.00000E+000   0.00000E+000   0.00000E+000   0.00000E+000
   0.00000E+000   0.00000E+000   0.00000E+000   0.00000E+000   0.00000E+000   0.00000E+000   0.00000E+000   0.00000E+000   0.00000E+000
   0.00000E+000   0.00000E+000   0.00000E+000   0.00000E+000   0.00000E+000   0.00000E+000   0.00000E+000   0.00000E+000   0.00000E+000
   0.00000E+000   0.00000E+000   0.00000E+000   0.00000E+000   0.00000E+000   0.00000E+000   0.00000E+000   0.00000E+000   0.00000E+000
   0.00000E+000   0.00000E+000   0.00000E+000   0.00000E+000   0.00000E+000   0.00000E+000   0.00000E+000   0.00000E+000   0.00000E+000
   0.00000E+000   0.00000E+000   0.00000E+000   0.00000E+000   0.00000E+000   0.00000E+000   0.00000E+000   0.00000E+000   0.00000E+000
   0.00000E+000   0.00000E+000   0.00000E+000   0.00000E+000   0.00000E+000   0.00000E+000   0.00000E+000   0.00000E+000   0.00000E+000
   0.00000E+000   0.00000E+000   0.00000E+000   0.00000E+000   0.00000E+000   0.00000E+000   0.00000E+000   0.00000E+000   0.00000E+000
   0.00000E+000   0.00000E+000   0.00000E+000   0.00000E+000   0.00000E+000   0.00000E+000   0.00000E+000   0.00000E+000   0.00000E+000
   0.00000E+000   0.00000E+000   0.00000E+000   0.00000E+000   0.00000E+000   0.00000E+000   0.00000E+000   0.00000E+000   0.00000E+000
   0.00000E+000   0.00000E+000   0.00000E+000   0.00000E+000   0.00000E+000   0.00000E+000   0.00000E+000   0.00000E+000   0.00000E+000
   0.00000E+000   0.00000E+000   0.00000E+000   0.00000E+000   0.00000E+000   0.00000E+000   0.00000E+000   0.00000E+000   0.00000E+000
   0.00000E+000   0.00000E+000   0.00000E+000   0.00000E+000   0.00000E+000   0.00000E+000   0.00000E+000   0.00000E+000   0.00000E+000
   0.00000E+000   0.00000E+000   0.00000E+000   0.00000E+000   0.00000E+000   0.00000E+000   0.00000E+000   0.00000E+000   0.00000E+000
   0.00000E+000   0.00000E+000   0.00000E+000   0.00000E+000   0.00000E+000   0.00000E+000   0.00000E+000   0.00000E+000   0.00000E+000
   0.00000E+000   0.00000E+000   0.00000E+000   0.00000E+000   0.00000E+000   0.00000E+000   0.00000E+000   0.00000E+000   0.00000E+000
   0.00000E+000   0.00000E+000   0.00000E+000   0.00000E+000   0.00000E+000   0.00000E+000   0.00000E+000   0.00000E+000   0.00000E+000
   0.00000E+000   0.00000E+000   0.00000E+000   0.00000E+000   0.00000E+000   0.00000E+000   0.00000E+000   0.00000E+000   0.00000E+000
   0.00000E+000   0.00000E+000   0.00000E+000   0.00000E+000   0.00000E+000   0.00000E+000   0.00000E+000   0.00000E+000   0.00000E+000
   0.00000E+000   0.00000E+000   0.00000E+000   0.00000E+000   0.00000E+000   0.00000E+000   0.00000E+000   0.00000E+000   0.00000E+000
   0.00000E+000   0.00000E+000   0.00000E+000   0.00000E+000   0.00000E+000   0.00000E+000   0.00000E+000   0.00000E+000   0.00000E+000
   0.00000E+000   0.00000E+000   0.00000E+000   0.00000E+000   0.00000E+000   0.00000E+000   0.00000E+000   0.00000E+000   0.00000E+000
   0.00000E+000   0.00000E+000   0.00000E+000   0.00000E+000   0.00000E+000   0.00000E+000   0.00000E+000   0.00000E+000   0.00000E+000
   0.00000E+000   0.00000E+000   0.00000E+000   0.00000E+000   0.00000E+000   0.00000E+000   0.00000E+000   0.00000E+000   0.00000E+000
   0.00000E+000   0.00000E+000   0.00000E+000   0.00000E+000   0.00000E+000   0.00000E+000   0.00000E+000   0.00000E+000   0.00000E+000
   0.00000E+000   0.00000E+000   0.00000E+000   0.00000E+000   0.00000E+000   0.00000E+000   0.00000E+000   0.00000E+000   0.00000E+000
   0.00000E+000   0.00000E+000   0.00000E+000   0.00000E+000   0.00000E+000   0.00000E+000   0.00000E+000   0.00000E+000   0.00000E+000
   0.00000E+000   0.00000E+000   0.00000E+000   0.00000E+000   0.00000E+000   0.00000E+000   0.00000E+000   0.00000E+000   0.00000E+000
   0.00000E+000   0.00000E+000   0.00000E+000   0.00000E+000   0.00000E+000   0.00000E+000   0.00000E+000   0.00000E+000   0.00000E+000
   0.00000E+000   0.00000E+000   0.00000E+000   0.00000E+000   0.00000E+000   0.00000E+000   0.00000E+000   0.00000E+000   0.00000E+000
   0.00000E+000   0.00000E+000   0.00000E+000   0.00000E+000   0.00000E+000   0.00000E+000   0.00000E+000   0.00000E+000   0.00000E+000
   0.00000E+000   0.00000E+000   0.00000E+000   0.00000E+000   0.00000E+000   0.00000E+000   0.00000E+000   0.00000E+000   0.00000E+000
   0.00000E+000   0.00000E+000   0.00000E+000   0.00000E+000   0.00000E+000   0.00000E+000   0.00000E+000   0.00000E+000   0.00000E+000
   0.00000E+000   0.00000E+000   0.00000E+000   0.00000E+000   0.00000E+000   0.00000E+000   0.00000E+000   0.00000E+000   0.00000E+000
   0.00000E+000   0.00000E+000   0.00000E+000   0.00000E+000   0.00000E+000   0.00000E+000   0.00000E+000   0.00000E+000   0.00000E+000
   0.00000E+000   0.00000E+000   0.00000E+000   0.00000E+000   0.00000E+000   0.00000E+000   0.00000E+000   0.00000E+000   0.00000E+000
   0.00000E+000   0.00000E+000   0.00000E+000   0.00000E+000   0.00000E+000   0.00000E+000   0.00000E+000   0.00000E+000   0.00000E+000
   0.00000E+000   0.00000E+000   0.00000E+000   0.00000E+000   0.00000E+000   0.00000E+000   0.00000E+000   0.00000E+000   0.00000E+000
   0.00000E+000   0.00000E+000   0.00000E+000   0.00000E+000   0.00000E+000   0.00000E+000   0.00000E+000   0.00000E+000   0.00000E+000
   0.00000E+000   0.00000E+000   0.00000E+000   0.00000E+000   0.00000E+000   0.00000E+000   0.00000E+000   0.00000E+000   0.00000E+000
   0.00000E+000   0.00000E+000   0.00000E+000   0.00000E+000   0.00000E+000   0.00000E+000   0.00000E+000   0.00000E+000   0.00000E+000
   0.00000E+000   0.00000E+000   0.00000E+000   0.00000E+000   0.00000E+000   0.00000E+000   0.00000E+000   0.00000E+000   0.00000E+000
   0.00000E+000   0.00000E+000   0.00000E+000   0.00000E+000   0.00000E+000   0.00000E+000   0.00000E+000   0.00000E+000   0.00000E+000
   0.00000E+000   0.00000E+000   0.00000E+000   0.00000E+000   0.00000E+000   0.00000E+000   0.00000E+000   0.00000E+000   0.00000E+000
   0.00000E+000   0.00000E+000   0.00000E+000   0.00000E+000   0.00000E+000   0.00000E+000   0.00000E+000   0.00000E+000   0.00000E+000
   0.00000E+000   0.00000E+000   0.00000E+000   0.00000E+000   0.00000E+000   0.00000E+000   0.00000E+000   0.00000E+000   0.00000E+000
   0.00000E+000   0.00000E+000   0.00000E+000   0.00000E+000   0.00000E+000   0.00000E+000   0.00000E+000   0.00000E+000   0.00000E+000
   0.00000E+000   0.00000E+000   0.00000E+000   0.00000E+000   0.00000E+000   0.00000E+000   0.00000E+000   0.00000E+000   0.00000E+000
   0.00000E+000   0.00000E+000   0.00000E+000   0.00000E+000   0.00000E+000   0.00000E+000   0.00000E+000   0.00000E+000   0.00000E+000
   0.00000E+000   0.00000E+000   0.00000E+000   0.00000E+000   0.00000E+000   0.00000E+000   0.00000E+000   0.00000E+000   0.00000E+000
   0.00000E+000   0.00000E+000   0.00000E+000   0.00000E+000   0.00000E+000   0.00000E+000   0.00000E+000   0.00000E+000   0.00000E+000
   0.00000E+000   0.00000E+000   0.00000E+000   0.00000E+000   0.00000E+000   0.00000E+000   0.00000E+000   0.00000E+000   0.00000E+000
   0.00000E+000   0.00000E+000   0.00000E+000   0.00000E+000   0.00000E+000   0.00000E+000   0.00000E+000   0.00000E+000   0.00000E+000
   0.00000E+000   0.00000E+000   0.00000E+000   0.00000E+000   0.00000E+000   0.00000E+000   0.00000E+000   0.00000E+000   0.00000E+000
   0.00000E+000   0.00000E+000   0.00000E+000   0.00000E+000   0.00000E+000   0.00000E+000   0.00000E+000   0.00000E+000   0.00000E+000
   0.00000E+000   0.00000E+000   0.00000E+000   0.00000E+000   0.00000E+000   0.00000E+000   0.00000E+000   0.00000E+000   0.00000E+000
   0.00000E+000   0.00000E+000   0.00000E+000   0.00000E+000   0.00000E+000   0.00000E+000   0.00000E+000   0.00000E+000   0.00000E+000
   0.00000E+000   0.00000E+000   0.00000E+000   0.00000E+000   0.00000E+000   0.00000E+000   0.00000E+000   0.00000E+000   0.00000E+000
   0.00000E+000   0.00000E+000   0.00000E+000   0.00000E+000   0.00000E+000   0.00000E+000   0.00000E+000   0.00000E+000   0.00000E+000
   0.00000E+000   0.00000E+000   0.00000E+000   0.00000E+000   0.00000E+000   0.00000E+000   0.00000E+000   0.00000E+000   0.00000E+000
   0.00000E+000   0.00000E+000   0.00000E+000   0.00000E+000   0.00000E+000   0.00000E+000   0.00000E+000   0.00000E+000   0.00000E+000
   0.00000E+000   0.00000E+000   0.00000E+000   0.00000E+000   0.00000E+000   0.00000E+000   0.00000E+000   0.00000E+000   0.00000E+000
   0.00000E+000   0.00000E+000   0.00000E+000   0.00000E+000   0.00000E+000   0.00000E+000   0.00000E+000   0.00000E+000   0.00000E+000
   0.00000E+000   0.00000E+000   0.00000E+000   0.00000E+000   0.00000E+000   0.00000E+000   0.00000E+000   0.00000E+000   0.00000E+000
   0.00000E+000   0.00000E+000   0.00000E+000   0.00000E+000   0.00000E+000   0.00000E+000   0.00000E+000   0.00000E+000   0.00000E+000
   0.00000E+000   0.00000E+000   0.00000E+000   0.00000E+000   0.00000E+000   0.00000E+000   0.00000E+000   0.00000E+000   0.00000E+000
   0.00000E+000   0.00000E+000   0.00000E+000   0.00000E+000   0.00000E+000   0.00000E+000   0.00000E+000   0.00000E+000   0.00000E+000
   0.00000E+000   0.00000E+000   0.00000E+000   0.00000E+000   0.00000E+000   0.00000E+000   0.00000E+000   0.00000E+000   0.00000E+000
   0.00000E+000   0.00000E+000   0.00000E+000   0.00000E+000   0.00000E+000   0.00000E+000   0.00000E+000   0.00000E+000   0.00000E+000
   0.00000E+000   0.00000E+000   0.00000E+000   0.00000E+000   0.00000E+000   0.00000E+000   0.00000E+000   0.00000E+000   0.00000E+000
   0.00000E+000   0.00000E+000   0.00000E+000   0.00000E+000   0.00000E+000   0.00000E+000   0.00000E+000   0.00000E+000   0.00000E+000
   0.00000E+000   0.00000E+000   0.00000E+000   0.00000E+000   0.00000E+000   0.00000E+000   0.00000E+000   0.00000E+000   0.00000E+000
   0.00000E+000   0.00000E+000   0.00000E+000   0.00000E+000   0.00000E+000   0.00000E+000   0.00000E+000   0.00000E+000   0.00000E+000
   0.00000E+000   0.00000E+000   0.00000E+000   0.00000E+000   0.00000E+000   0.00000E+000   0.00000E+000   0.00000E+000   0.00000E+000
   0.00000E+000   0.00000E+000   0.00000E+000   0.00000E+000   0.00000E+000   0.00000E+000   0.00000E+000   0.00000E+000   0.00000E+000
   0.00000E+000   0.00000E+000   0.00000E+000   0.00000E+000   0.00000E+000   0.00000E+000   0.00000E+000   0.00000E+000   0.00000E+000
   0.00000E+000   0.00000E+000   0.00000E+000   0.00000E+000   0.00000E+000   0.00000E+000   0.00000E+000   0.00000E+000   0.00000E+000
   0.00000E+000   0.00000E+000   0.00000E+000   0.00000E+000   0.00000E+000   0.00000E+000   0.00000E+000   0.00000E+000   0.00000E+000
   0.00000E+000   0.00000E+000   0.00000E+000   0.00000E+000   0.00000E+000   0.00000E+000   0.00000E+000   0.00000E+000   0.00000E+000
   0.00000E+000   0.00000E+000   0.00000E+000   0.00000E+000   0.00000E+000   0.00000E+000   0.00000E+000   0.00000E+000   0.00000E+000
   0.00000E+000   0.00000E+000   0.00000E+000   0.00000E+000   0.00000E+000   0.00000E+000   0.00000E+000   0.00000E+000   0.00000E+000
   0.00000E+000   0.00000E+000   0.00000E+000   0.00000E+000   0.00000E+000   0.00000E+000   0.00000E+000   0.00000E+000   0.00000E+000
   0.00000E+000   0.00000E+000   0.00000E+000   0.00000E+000   0.00000E+000   0.00000E+000   0.00000E+000   0.00000E+000   0.00000E+000
   0.00000E+000   0.00000E+000   0.00000E+000   0.00000E+000   0.00000E+000   0.00000E+000   0.00000E+000   0.00000E+000   0.00000E+000
   0.00000E+000   0.00000E+000   0.00000E+000   0.00000E+000   0.00000E+000   0.00000E+000   0.00000E+000   0.00000E+000   0.00000E+000
   0.00000E+000   0.00000E+000   0.00000E+000   0.00000E+000   0.00000E+000   0.00000E+000   0.00000E+000   0.00000E+000   0.00000E+000
   0.00000E+000   0.00000E+000   0.00000E+000   0.00000E+000   0.00000E+000   0.00000E+000   0.00000E+000   0.00000E+000   0.00000E+000
   0.00000E+000   0.00000E+000   0.00000E+000   0.00000E+000   0.00000E+000   0.00000E+000   0.00000E+000   0.00000E+000   0.00000E+000
   0.00000E+000   0.00000E+000   0.00000E+000   0.00000E+000   0.00000E+000   0.00000E+000   0.00000E+000   0.00000E+000   0.00000E+000
   0.00000E+000   0.00000E+000   0.00000E+000   0.00000E+000   0.00000E+000   0.00000E+000   0.00000E+000   0.00000E+000   0.00000E+000
   0.00000E+000   0.00000E+000   0.00000E+000   0.00000E+000   0.00000E+000   0.00000E+000   0.00000E+000   0.00000E+000   0.00000E+000
   0.00000E+000   0.00000E+000   0.00000E+000   0.00000E+000   0.00000E+000   0.00000E+000   0.00000E+000   0.00000E+000   0.00000E+000
   0.00000E+000   0.00000E+000   0.00000E+000   0.00000E+000   0.00000E+000   0.00000E+000   0.00000E+000   0.00000E+000   0.00000E+000
   0.00000E+000   0.00000E+000   0.00000E+000   0.00000E+000   0.00000E+000   0.00000E+000   0.00000E+000   0.00000E+000   0.00000E+000
   0.00000E+000   0.00000E+000   0.00000E+000   0.00000E+000   0.00000E+000   0.00000E+000   0.00000E+000   0.00000E+000   0.00000E+000
   0.00000E+000   0.00000E+000   0.00000E+000   0.00000E+000   0.00000E+000   0.00000E+000   0.00000E+000   0.00000E+000   0.00000E+000
   0.00000E+000   0.00000E+000   0.00000E+000   0.00000E+000   0.00000E+000   0.00000E+000   0.00000E+000   0.00000E+000   0.00000E+000
   0.00000E+000   0.00000E+000   0.00000E+000   0.00000E+000   0.00000E+000   0.00000E+000   0.00000E+000   0.00000E+000   0.00000E+000
   0.00000E+000   0.00000E+000   0.00000E+000   0.00000E+000   0.00000E+000   0.00000E+000   0.00000E+000   0.00000E+000   0.00000E+000
   0.00000E+000   0.00000E+000   0.00000E+000   0.00000E+000   0.00000E+000   0.00000E+000   0.00000E+000   0.00000E+000   0.00000E+000
   0.00000E+000   0.00000E+000   0.00000E+000   0.00000E+000   0.00000E+000   0.00000E+000   0.00000E+000   0.00000E+000   0.00000E+000
   0.00000E+000   0.00000E+000   0.00000E+000   0.00000E+000   0.00000E+000   0.00000E+000   0.00000E+000   0.00000E+000   0.00000E+000
   0.00000E+000   0.00000E+000   0.00000E+000   0.00000E+000   0.00000E+000   0.00000E+000   0.00000E+000   0.00000E+000   0.00000E+000
   0.00000E+000   0.00000E+000   0.00000E+000   0.00000E+000   0.00000E+000   0.00000E+000   0.00000E+000   0.00000E+000   0.00000E+000
   0.00000E+000   0.00000E+000   0.00000E+000   0.00000E+000   0.00000E+000   0.00000E+000   0.00000E+000   0.00000E+000   0.00000E+000
   0.00000E+000   0.00000E+000   0.00000E+000   0.00000E+000   0.00000E+000   0.00000E+000   0.00000E+000   0.00000E+000   0.00000E+000
   0.00000E+000   0.00000E+000   0.00000E+000   0.00000E+000   0.00000E+000   0.00000E+000   0.00000E+000   0.00000E+000   0.00000E+000
   0.00000E+000   0.00000E+000   0.00000E+000   0.00000E+000   0.00000E+000   0.00000E+000   0.00000E+000   0.00000E+000   0.00000E+000
   0.00000E+000   0.00000E+000   0.00000E+000   0.00000E+000   0.00000E+000   0.00000E+000   0.00000E+000   0.00000E+000   0.00000E+000
   0.00000E+000   0.00000E+000   0.00000E+000   0.00000E+000   0.00000E+000   0.00000E+000   0.00000E+000   0.00000E+000   0.00000E+000
   0.00000E+000   0.00000E+000   0.00000E+000   0.00000E+000   0.00000E+000   0.00000E+000   0.00000E+000   0.00000E+000   0.00000E+000
   0.00000E+000   0.00000E+000   0.00000E+000   0.00000E+000   0.00000E+000   0.00000E+000   0.00000E+000   0.00000E+000   0.00000E+000
   0.00000E+000   0.00000E+000   0.00000E+000   0.00000E+000   0.00000E+000   0.00000E+000   0.00000E+000   0.00000E+000   0.00000E+000
   0.00000E+000   0.00000E+000   0.00000E+000   0.00000E+000   0.00000E+000   0.00000E+000   0.00000E+000   0.00000E+000   0.00000E+000
   0.00000E+000   0.00000E+000   0.00000E+000   0.00000E+000   0.00000E+000   0.00000E+000   0.00000E+000   0.00000E+000   0.00000E+000
   0.00000E+000   0.00000E+000   0.00000E+000   0.00000E+000   0.00000E+000   0.00000E+000   0.00000E+000   0.00000E+000   0.00000E+000
   0.00000E+000   0.00000E+000   0.00000E+000   0.00000E+000   0.00000E+000   0.00000E+000   0.00000E+000   0.00000E+000   0.00000E+000
   0.00000E+000   0.00000E+000   0.00000E+000   0.00000E+000   0.00000E+000   0.00000E+000   0.00000E+000   0.00000E+000   0.00000E+000
   0.00000E+000   0.00000E+000   0.00000E+000   0.00000E+000   0.00000E+000   0.00000E+000   0.00000E+000   0.00000E+000   0.00000E+000
   0.00000E+000   0.00000E+000   0.00000E+000   0.00000E+000   0.00000E+000   0.00000E+000   0.00000E+000   0.00000E+000   0.00000E+000
   0.00000E+000   0.00000E+000   0.00000E+000   0.00000E+000   0.00000E+000   0.00000E+000   0.00000E+000   0.00000E+000   0.00000E+000
   0.00000E+000   0.00000E+000   0.00000E+000   0.00000E+000   0.00000E+000   0.00000E+000   0.00000E+000   0.00000E+000   0.00000E+000
   0.00000E+000   0.00000E+000   0.00000E+000   0.00000E+000   0.00000E+000   0.00000E+000   0.00000E+000   0.00000E+000   0.00000E+000
   0.00000E+000   0.00000E+000   0.00000E+000   0.00000E+000   0.00000E+000   0.00000E+000   0.00000E+000   0.00000E+000   0.00000E+000
   0.00000E+000   0.00000E+000   0.00000E+000   0.00000E+000   0.00000E+000   0.00000E+000   0.00000E+000   0.00000E+000   0.00000E+000
   0.00000E+000   0.00000E+000   0.00000E+000   0.00000E+000   0.00000E+000   0.00000E+000   0.00000E+000   0.00000E+000   0.00000E+000
   0.00000E+000   0.00000E+000   0.00000E+000   0.00000E+000   0.00000E+000   0.00000E+000   0.00000E+000   0.00000E+000   0.00000E+000
   0.00000E+000   0.00000E+000   0.00000E+000   0.00000E+000   0.00000E+000   0.00000E+000   0.00000E+000   0.00000E+000   0.00000E+000
   0.00000E+000   0.00000E+000   0.00000E+000   0.00000E+000   0.00000E+000   0.00000E+000   0.00000E+000   0.00000E+000   0.00000E+000
   0.00000E+000   0.00000E+000   0.00000E+000   0.00000E+000   0.00000E+000   0.00000E+000   0.00000E+000   0.00000E+000   0.00000E+000
   0.00000E+000   0.00000E+000   0.00000E+000   0.00000E+000   0.00000E+000   0.00000E+000   0.00000E+000   0.00000E+000   0.00000E+000
   0.00000E+000   0.00000E+000   0.00000E+000   0.00000E+000   0.00000E+000   0.00000E+000   0.00000E+000   0.00000E+000   0.00000E+000
   0.00000E+000   0.00000E+000   0.00000E+000   0.00000E+000   0.00000E+000   0.00000E+000   0.00000E+000   0.00000E+000   0.00000E+000
   0.00000E+000   0.00000E+000   0.00000E+000   0.00000E+000   0.00000E+000   0.00000E+000   0.00000E+000   0.00000E+000   0.00000E+000
   0.00000E+000   0.00000E+000   0.00000E+000   0.00000E+000   0.00000E+000   0.00000E+000   0.00000E+000   0.00000E+000   0.00000E+000
   0.00000E+000   0.00000E+000   0.00000E+000   0.00000E+000   0.00000E+000   0.00000E+000   0.00000E+000   0.00000E+000   0.00000E+000
   0.00000E+000   0.00000E+000   0.00000E+000   0.00000E+000   0.00000E+000   0.00000E+000   0.00000E+000   0.00000E+000   0.00000E+000
   0.00000E+000   0.00000E+000   0.00000E+000   0.00000E+000   0.00000E+000   0.00000E+000   0.00000E+000   0.00000E+000   0.00000E+000
   0.00000E+000   0.00000E+000   0.00000E+000   0.00000E+000   0.00000E+000   0.00000E+000   0.00000E+000   0.00000E+000   0.00000E+000
   0.00000E+000   0.00000E+000   0.00000E+000   0.00000E+000   0.00000E+000   0.00000E+000   0.00000E+000   0.00000E+000   0.00000E+000
   0.00000E+000   0.00000E+000   0.00000E+000   0.00000E+000   0.00000E+000   0.00000E+000   0.00000E+000   0.00000E+000   0.00000E+000
   0.00000E+000   0.00000E+000   0.00000E+000   0.00000E+000   0.00000E+000   0.00000E+000   0.00000E+000   0.00000E+000   0.00000E+000
   0.00000E+000   0.00000E+000   0.00000E+000   0.00000E+000   0.00000E+000   0.00000E+000   0.00000E+000   0.00000E+000   0.00000E+000
   0.00000E+000   0.00000E+000   0.00000E+000   0.00000E+000   0.00000E+000   0.00000E+000   0.00000E+000   0.00000E+000   0.00000E+000
   0.00000E+000   0.00000E+000   0.00000E+000   0.00000E+000   0.00000E+000   0.00000E+000   0.00000E+000   0.00000E+000   0.00000E+000
   0.00000E+000   0.00000E+000   0.00000E+000   0.00000E+000   0.00000E+000   0.00000E+000   0.00000E+000   0.00000E+000   0.00000E+000
   0.00000E+000   0.00000E+000   0.00000E+000   0.00000E+000   0.00000E+000   0.00000E+000   0.00000E+000   0.00000E+000   0.00000E+000
   0.00000E+000   0.00000E+000   0.00000E+000   0.00000E+000   0.00000E+000   0.00000E+000   0.00000E+000   0.00000E+000   0.00000E+000
   0.00000E+000   0.00000E+000   0.00000E+000   0.00000E+000   0.00000E+000   0.00000E+000   0.00000E+000   0.00000E+000   0.00000E+000
   0.00000E+000   0.00000E+000   0.00000E+000   0.00000E+000   0.00000E+000   0.00000E+000   0.00000E+000   0.00000E+000   0.00000E+000
   0.00000E+000   0.00000E+000   0.00000E+000   0.00000E+000   0.00000E+000   0.00000E+000   0.00000E+000   0.00000E+000   0.00000E+000
   0.00000E+000   0.00000E+000   0.00000E+000   0.00000E+000   0.00000E+000   0.00000E+000   0.00000E+000   0.00000E+000   0.00000E+000
   0.00000E+000   0.00000E+000   0.00000E+000   0.00000E+000   0.00000E+000   0.00000E+000   0.00000E+000   0.00000E+000   0.00000E+000
   0.00000E+000   0.00000E+000   0.00000E+000   0.00000E+000   0.00000E+000   0.00000E+000   0.00000E+000   0.00000E+000   0.00000E+000
   0.00000E+000   0.00000E+000   0.00000E+000   0.00000E+000   0.00000E+000   0.00000E+000   0.00000E+000   0.00000E+000   0.00000E+000
   0.00000E+000   0.00000E+000   0.00000E+000   0.00000E+000   0.00000E+000   0.00000E+000   0.00000E+000   0.00000E+000   0.00000E+000
   0.00000E+000   0.00000E+000   0.00000E+000   0.00000E+000   0.00000E+000   0.00000E+000   0.00000E+000   0.00000E+000   0.00000E+000
   0.00000E+000   0.00000E+000   0.00000E+000   0.00000E+000   0.00000E+000   0.00000E+000   0.00000E+000   0.00000E+000   0.00000E+000
   0.00000E+000   0.00000E+000   0.00000E+000   0.00000E+000   0.00000E+000   0.00000E+000   0.00000E+000   0.00000E+000   0.00000E+000
   0.00000E+000   0.00000E+000   0.00000E+000   0.00000E+000   0.00000E+000   0.00000E+000   0.00000E+000   0.00000E+000   0.00000E+000
   0.00000E+000   0.00000E+000   0.00000E+000   0.00000E+000   0.00000E+000   0.00000E+000   0.00000E+000   0.00000E+000   0.00000E+000
   0.00000E+000   0.00000E+000   0.00000E+000   0.00000E+000   0.00000E+000   0.00000E+000   0.00000E+000   0.00000E+000   0.00000E+000
   0.00000E+000   0.00000E+000   0.00000E+000   0.00000E+000   0.00000E+000   0.00000E+000   0.00000E+000   0.00000E+000   0.00000E+000
   0.00000E+000   0.00000E+000   0.00000E+000   0.00000E+000   0.00000E+000   0.00000E+000   0.00000E+000   0.00000E+000   0.00000E+000
   0.00000E+000   0.00000E+000   0.00000E+000   0.00000E+000   0.00000E+000   0.00000E+000   0.00000E+000   0.00000E+000   0.00000E+000
   0.00000E+000   0.00000E+000   0.00000E+000   0.00000E+000   0.00000E+000   0.00000E+000   0.00000E+000   0.00000E+000   0.00000E+000
   0.00000E+000   0.00000E+000   0.00000E+000   0.00000E+000   0.00000E+000   0.00000E+000   0.00000E+000   0.00000E+000   0.00000E+000
   0.00000E+000   0.00000E+000   0.00000E+000   0.00000E+000   0.00000E+000   0.00000E+000   0.00000E+000   0.00000E+000   0.00000E+000
   0.00000E+000   0.00000E+000   0.00000E+000   0.00000E+000   0.00000E+000   0.00000E+000   0.00000E+000   0.00000E+000   0.00000E+000
   0.00000E+000   0.00000E+000   0.00000E+000   0.00000E+000   0.00000E+000   0.00000E+000   0.00000E+000   0.00000E+000   0.00000E+000
   0.00000E+000   0.00000E+000   0.00000E+000   0.00000E+000   0.00000E+000   0.00000E+000   0.00000E+000   0.00000E+000   0.00000E+000
   0.00000E+000   0.00000E+000   0.00000E+000   0.00000E+000   0.00000E+000   0.00000E+000   0.00000E+000   0.00000E+000   0.00000E+000
   0.00000E+000   0.00000E+000   0.00000E+000   0.00000E+000   0.00000E+000   0.00000E+000   0.00000E+000   0.00000E+000   0.00000E+000
   0.00000E+000   0.00000E+000   0.00000E+000   0.00000E+000   0.00000E+000   0.00000E+000   0.00000E+000   0.00000E+000   0.00000E+000
   0.00000E+000   0.00000E+000   0.00000E+000   0.00000E+000   0.00000E+000   0.00000E+000   0.00000E+000   0.00000E+000   0.00000E+000
   0.00000E+000   0.00000E+000   0.00000E+000   0.00000E+000   0.00000E+000   0.00000E+000   0.00000E+000   0.00000E+000   0.00000E+000
   0.00000E+000   0.00000E+000   0.00000E+000   0.00000E+000   0.00000E+000   0.00000E+000   0.00000E+000   0.00000E+000   0.00000E+000
   0.00000E+000   0.00000E+000   0.00000E+000   0.00000E+000   0.00000E+000   0.00000E+000   0.00000E+000   0.00000E+000   0.00000E+000
   0.00000E+000   0.00000E+000   0.00000E+000   0.00000E+000   0.00000E+000   0.00000E+000   0.00000E+000   0.00000E+000   0.00000E+000
   0.00000E+000   0.00000E+000   0.00000E+000   0.00000E+000   0.00000E+000   0.00000E+000   0.00000E+000   0.00000E+000   0.00000E+000
   0.00000E+000   0.00000E+000   0.00000E+000   0.00000E+000   0.00000E+000   0.00000E+000   0.00000E+000   0.00000E+000   0.00000E+000
   0.00000E+000   0.00000E+000   0.00000E+000   0.00000E+000   0.00000E+000   0.00000E+000   0.00000E+000   0.00000E+000   0.00000E+000
   0.00000E+000   0.00000E+000   0.00000E+000   0.00000E+000   0.00000E+000   0.00000E+000   0.00000E+000   0.00000E+000   0.00000E+000
   0.00000E+000   0.00000E+000   0.00000E+000   0.00000E+000   0.00000E+000   0.00000E+000   0.00000E+000   0.00000E+000   0.00000E+000
   0.00000E+000   0.00000E+000   0.00000E+000   0.00000E+000   0.00000E+000   0.00000E+000   0.00000E+000   0.00000E+000   0.00000E+000
   0.00000E+000   0.00000E+000   0.00000E+000   0.00000E+000   0.00000E+000   0.00000E+000   0.00000E+000   0.00000E+000   0.00000E+000
   0.00000E+000   0.00000E+000   0.00000E+000   0.00000E+000   0.00000E+000   0.00000E+000   0.00000E+000   0.00000E+000   0.00000E+000
   0.00000E+000   0.00000E+000   0.00000E+000   0.00000E+000   0.00000E+000   0.00000E+000   0.00000E+000   0.00000E+000   0.00000E+000
   0.00000E+000   0.00000E+000   0.00000E+000   0.00000E+000   0.00000E+000   0.00000E+000   0.00000E+000   0.00000E+000   0.00000E+000
   0.00000E+000   0.00000E+000   0.00000E+000   0.00000E+000   0.00000E+000   0.00000E+000   0.00000E+000   0.00000E+000   0.00000E+000
   0.00000E+000   0.00000E+000   0.00000E+000   0.00000E+000   0.00000E+000   0.00000E+000   0.00000E+000   0.00000E+000   0.00000E+000
   0.00000E+000   0.00000E+000   0.00000E+000   0.00000E+000   0.00000E+000   0.00000E+000   0.00000E+000   0.00000E+000   0.00000E+000
   0.00000E+000   0.00000E+000   0.00000E+000   0.00000E+000   0.00000E+000   0.00000E+000   0.00000E+000   0.00000E+000   0.00000E+000
   0.00000E+000   0.00000E+000   0.00000E+000   0.00000E+000   0.00000E+000   0.00000E+000   0.00000E+000   0.00000E+000   0.00000E+000
   0.00000E+000   0.00000E+000   0.00000E+000   0.00000E+000   0.00000E+000   0.00000E+000   0.00000E+000   0.00000E+000   0.00000E+000
   0.00000E+000   0.00000E+000   0.00000E+000   0.00000E+000   0.00000E+000   0.00000E+000   0.00000E+000   0.00000E+000   0.00000E+000
   0.00000E+000   0.00000E+000   0.00000E+000   0.00000E+000   0.00000E+000   0.00000E+000   0.00000E+000   0.00000E+000   0.00000E+000
   0.00000E+000   0.00000E+000   0.00000E+000   0.00000E+000   0.00000E+000   0.00000E+000   0.00000E+000   0.00000E+000   0.00000E+000
   0.00000E+000   0.00000E+000   0.00000E+000   0.00000E+000   0.00000E+000   0.00000E+000   0.00000E+000   0.00000E+000   0.00000E+000
   0.00000E+000   0.00000E+000   0.00000E+000   0.00000E+000   0.00000E+000   0.00000E+000   0.00000E+000   0.00000E+000   0.00000E+000
   0.00000E+000   0.00000E+000   0.00000E+000   0.00000E+000   0.00000E+000   0.00000E+000   0.00000E+000   0.00000E+000   0.00000E+000
   0.00000E+000   0.00000E+000   0.00000E+000   0.00000E+000   0.00000E+000   0.00000E+000   0.00000E+000   0.00000E+000   0.00000E+000
   0.00000E+000   0.00000E+000   0.00000E+000   0.00000E+000   0.00000E+000   0.00000E+000   0.00000E+000   0.00000E+000   0.00000E+000
   0.00000E+000   0.00000E+000   0.00000E+000   0.00000E+000   0.00000E+000   0.00000E+000   0.00000E+000   0.00000E+000   0.00000E+000
   0.00000E+000   0.00000E+000   0.00000E+000   0.00000E+000   0.00000E+000   0.00000E+000   0.00000E+000   0.00000E+000   0.00000E+000
   0.00000E+000   0.00000E+000   0.00000E+000   0.00000E+000   0.00000E+000   0.00000E+000   0.00000E+000   0.00000E+000   0.00000E+000
   0.00000E+000   0.00000E+000   0.00000E+000   0.00000E+000   0.00000E+000   0.00000E+000   0.00000E+000   0.00000E+000   0.00000E+000
   0.00000E+000   0.00000E+000   0.00000E+000   0.00000E+000   0.00000E+000   0.00000E+000   0.00000E+000   0.00000E+000   0.00000E+000
   0.00000E+000   0.00000E+000   0.00000E+000   0.00000E+000   0.00000E+000   0.00000E+000   0.00000E+000   0.00000E+000   0.00000E+000
   0.00000E+000   0.00000E+000   0.00000E+000   0.00000E+000   0.00000E+000   0.00000E+000   0.00000E+000   0.00000E+000   0.00000E+000
   0.00000E+000   0.00000E+000   0.00000E+000   0.00000E+000   0.00000E+000   0.00000E+000   0.00000E+000   0.00000E+000   0.00000E+000
   0.00000E+000   0.00000E+000   0.00000E+000   0.00000E+000   0.00000E+000   0.00000E+000   0.00000E+000   0.00000E+000   0.00000E+000
   0.00000E+000   0.00000E+000   0.00000E+000   0.00000E+000   0.00000E+000   0.00000E+000   0.00000E+000   0.00000E+000   0.00000E+000
   0.00000E+000   0.00000E+000   0.00000E+000   0.00000E+000   0.00000E+000   0.00000E+000   0.00000E+000   0.00000E+000   0.00000E+000
   0.00000E+000   0.00000E+000   0.00000E+000   0.00000E+000   0.00000E+000   0.00000E+000   0.00000E+000   0.00000E+000   0.00000E+000
   0.00000E+000   0.00000E+000   0.00000E+000   0.00000E+000   0.00000E+000   0.00000E+000   0.00000E+000   0.00000E+000   0.00000E+000
   0.00000E+000   0.00000E+000   0.00000E+000   0.00000E+000   0.00000E+000   0.00000E+000   0.00000E+000   0.00000E+000   0.00000E+000
   0.00000E+000   0.00000E+000   0.00000E+000   0.00000E+000   0.00000E+000   0.00000E+000   0.00000E+000   0.00000E+000   0.00000E+000
   0.00000E+000   0.00000E+000   0.00000E+000   0.00000E+000   0.00000E+000   0.00000E+000   0.00000E+000   0.00000E+000   0.00000E+000
   0.00000E+000   0.00000E+000   0.00000E+000   0.00000E+000   0.00000E+000   0.00000E+000   0.00000E+000   0.00000E+000   0.00000E+000
   0.00000E+000   0.00000E+000   0.00000E+000   0.00000E+000   0.00000E+000   0.00000E+000   0.00000E+000   0.00000E+000   0.00000E+000
   0.00000E+000   0.00000E+000   0.00000E+000   0.00000E+000   0.00000E+000   0.00000E+000   0.00000E+000   0.00000E+000   0.00000E+000
   0.00000E+000   0.00000E+000   0.00000E+000   0.00000E+000   0.00000E+000   0.00000E+000   0.00000E+000   0.00000E+000   0.00000E+000
   0.00000E+000   0.00000E+000   0.00000E+000   0.00000E+000   0.00000E+000   0.00000E+000   0.00000E+000   0.00000E+000   0.00000E+000
   0.00000E+000   0.00000E+000   0.00000E+000   0.00000E+000   0.00000E+000   0.00000E+000   0.00000E+000   0.00000E+000   0.00000E+000
   0.00000E+000   0.00000E+000   0.00000E+000   0.00000E+000   0.00000E+000   0.00000E+000   0.00000E+000   0.00000E+000   0.00000E+000
   0.00000E+000   0.00000E+000   0.00000E+000   0.00000E+000   0.00000E+000   0.00000E+000   0.00000E+000   0.00000E+000   0.00000E+000
   0.00000E+000   0.00000E+000   0.00000E+000   0.00000E+000   0.00000E+000   0.00000E+000   0.00000E+000   0.00000E+000   0.00000E+000
   0.00000E+000   0.00000E+000   0.00000E+000   0.00000E+000   0.00000E+000   0.00000E+000   0.00000E+000   0.00000E+000   0.00000E+000
   0.00000E+000   0.00000E+000   0.00000E+000   0.00000E+000   0.00000E+000   0.00000E+000   0.00000E+000   0.00000E+000   0.00000E+000
   0.00000E+000   0.00000E+000   0.00000E+000   0.00000E+000   0.00000E+000   0.00000E+000   0.00000E+000   0.00000E+000   0.00000E+000
   0.00000E+000   0.00000E+000   0.00000E+000   0.00000E+000   0.00000E+000   0.00000E+000   0.00000E+000   0.00000E+000   0.00000E+000
   0.00000E+000   0.00000E+000   0.00000E+000   0.00000E+000   0.00000E+000   0.00000E+000   0.00000E+000   0.00000E+000   0.00000E+000
   0.00000E+000   0.00000E+000   0.00000E+000   0.00000E+000   0.00000E+000   0.00000E+000   0.00000E+000   0.00000E+000   0.00000E+000
   0.00000E+000   0.00000E+000   0.00000E+000   0.00000E+000   0.00000E+000   0.00000E+000   0.00000E+000   0.00000E+000   0.00000E+000
   0.00000E+000   0.00000E+000   0.00000E+000   0.00000E+000   0.00000E+000   0.00000E+000   0.00000E+000   0.00000E+000   0.00000E+000
   0.00000E+000   0.00000E+000   0.00000E+000   0.00000E+000   0.00000E+000   0.00000E+000   0.00000E+000   0.00000E+000   0.00000E+000
   0.00000E+000   0.00000E+000   0.00000E+000   0.00000E+000   0.00000E+000   0.00000E+000   0.00000E+000   0.00000E+000   0.00000E+000
   0.00000E+000   0.00000E+000   0.00000E+000   0.00000E+000   0.00000E+000   0.00000E+000   0.00000E+000   0.00000E+000   0.00000E+000
   0.00000E+000   0.00000E+000   0.00000E+000   0.00000E+000   0.00000E+000   0.00000E+000   0.00000E+000   0.00000E+000   0.00000E+000
   0.00000E+000   0.00000E+000   0.00000E+000   0.00000E+000   0.00000E+000   0.00000E+000   0.00000E+000   0.00000E+000   0.00000E+000
   0.00000E+000   0.00000E+000   0.00000E+000   0.00000E+000   0.00000E+000   0.00000E+000   0.00000E+000   0.00000E+000   0.00000E+000
   0.00000E+000   0.00000E+000   0.00000E+000   0.00000E+000   0.00000E+000   0.00000E+000   0.00000E+000   0.00000E+000   0.00000E+000
   0.00000E+000   0.00000E+000   0.00000E+000   0.00000E+000   0.00000E+000   0.00000E+000   0.00000E+000   0.00000E+000   0.00000E+000
   0.00000E+000   0.00000E+000   0.00000E+000   0.00000E+000   0.00000E+000   0.00000E+000   0.00000E+000   0.00000E+000   0.00000E+000
   0.00000E+000   0.00000E+000   0.00000E+000   0.00000E+000   0.00000E+000   0.00000E+000   0.00000E+000   0.00000E+000   0.00000E+000
   0.00000E+000   0.00000E+000   0.00000E+000   0.00000E+000   0.00000E+000   0.00000E+000   0.00000E+000   0.00000E+000   0.00000E+000
   0.00000E+000   0.00000E+000   0.00000E+000   0.00000E+000   0.00000E+000   0.00000E+000   0.00000E+000   0.00000E+000   0.00000E+000
   0.00000E+000   0.00000E+000   0.00000E+000   0.00000E+000   0.00000E+000   0.00000E+000   0.00000E+000   0.00000E+000   0.00000E+000
   0.00000E+000   0.00000E+000   0.00000E+000   0.00000E+000   0.00000E+000   0.00000E+000   0.00000E+000   0.00000E+000   0.00000E+000
   0.00000E+000   0.00000E+000   0.00000E+000   0.00000E+000   0.00000E+000   0.00000E+000   0.00000E+000   0.00000E+000   0.00000E+000
   0.00000E+000   0.00000E+000   0.00000E+000   0.00000E+000   0.00000E+000   0.00000E+000   0.00000E+000   0.00000E+000   0.00000E+000
   0.00000E+000   0.00000E+000   0.00000E+000   0.00000E+000   0.00000E+000   0.00000E+000   0.00000E+000   0.00000E+000   0.00000E+000
   0.00000E+000   0.00000E+000   0.00000E+000   0.00000E+000   0.00000E+000   0.00000E+000   0.00000E+000   0.00000E+000   0.00000E+000
   0.00000E+000   0.00000E+000   0.00000E+000   0.00000E+000   0.00000E+000   0.00000E+000   0.00000E+000   0.00000E+000   0.00000E+000
   0.00000E+000   0.00000E+000   0.00000E+000   0.00000E+000   0.00000E+000   0.00000E+000   0.00000E+000   0.00000E+000   0.00000E+000
   0.00000E+000   0.00000E+000   0.00000E+000   0.00000E+000   0.00000E+000   0.00000E+000   0.00000E+000   0.00000E+000   0.00000E+000
   0.00000E+000   0.00000E+000   0.00000E+000   0.00000E+000   0.00000E+000   0.00000E+000   0.00000E+000   0.00000E+000   0.00000E+000
   0.00000E+000   0.00000E+000   0.00000E+000   0.00000E+000   0.00000E+000   0.00000E+000   0.00000E+000   0.00000E+000   0.00000E+000
   0.00000E+000   0.00000E+000   0.00000E+000   0.00000E+000   0.00000E+000   0.00000E+000   0.00000E+000   0.00000E+000   0.00000E+000
   0.00000E+000   0.00000E+000   0.00000E+000   0.00000E+000   0.00000E+000   0.00000E+000   0.00000E+000   0.00000E+000   0.00000E+000
   0.00000E+000   0.00000E+000   0.00000E+000   0.00000E+000   0.00000E+000   0.00000E+000   0.00000E+000   0.00000E+000   0.00000E+000
   0.00000E+000   0.00000E+000   0.00000E+000   0.00000E+000   0.00000E+000   0.00000E+000   0.00000E+000   0.00000E+000   0.00000E+000
   0.00000E+000   0.00000E+000   0.00000E+000   0.00000E+000   0.00000E+000   0.00000E+000   0.00000E+000   0.00000E+000   0.00000E+000
   0.00000E+000   0.00000E+000   0.00000E+000   0.00000E+000   0.00000E+000   0.00000E+000   0.00000E+000   0.00000E+000   0.00000E+000
   0.00000E+000   0.00000E+000   0.00000E+000   0.00000E+000   0.00000E+000   0.00000E+000   0.00000E+000   0.00000E+000   0.00000E+000
   0.00000E+000   0.00000E+000   0.00000E+000   0.00000E+000   0.00000E+000   0.00000E+000   0.00000E+000   0.00000E+000   0.00000E+000
   0.00000E+000   0.00000E+000   0.00000E+000   0.00000E+000   0.00000E+000   0.00000E+000   0.00000E+000   0.00000E+000   0.00000E+000
   0.00000E+000   0.00000E+000   0.00000E+000   0.00000E+000   0.00000E+000   0.00000E+000   0.00000E+000   0.00000E+000   0.00000E+000
   0.00000E+000   0.00000E+000   0.00000E+000   0.00000E+000   0.00000E+000   0.00000E+000   0.00000E+000   0.00000E+000   0.00000E+000
   0.00000E+000   0.00000E+000   0.00000E+000   0.00000E+000   0.00000E+000   0.00000E+000   0.00000E+000   0.00000E+000   0.00000E+000
   0.00000E+000   0.00000E+000   0.00000E+000   0.00000E+000   0.00000E+000   0.00000E+000   0.00000E+000   0.00000E+000   0.00000E+000
   0.00000E+000   0.00000E+000   0.00000E+000   0.00000E+000   0.00000E+000   0.00000E+000   0.00000E+000   0.00000E+000   0.00000E+000
   0.00000E+000   0.00000E+000   0.00000E+000   0.00000E+000   0.00000E+000   0.00000E+000   0.00000E+000   0.00000E+000   0.00000E+000
   0.00000E+000   0.00000E+000   0.00000E+000   0.00000E+000   0.00000E+000   0.00000E+000   0.00000E+000   0.00000E+000   0.00000E+000
   0.00000E+000   0.00000E+000   0.00000E+000   0.00000E+000   0.00000E+000   0.00000E+000   0.00000E+000   0.00000E+000   0.00000E+000
   0.00000E+000   0.00000E+000   0.00000E+000   0.00000E+000   0.00000E+000   0.00000E+000   0.00000E+000   0.00000E+000   0.00000E+000
   0.00000E+000   0.00000E+000   0.00000E+000   0.00000E+000   0.00000E+000   0.00000E+000   0.00000E+000   0.00000E+000   0.00000E+000
   0.00000E+000   0.00000E+000   0.00000E+000   0.00000E+000   0.00000E+000   0.00000E+000   0.00000E+000   0.00000E+000   0.00000E+000
   0.00000E+000   0.00000E+000   0.00000E+000   0.00000E+000   0.00000E+000   0.00000E+000   0.00000E+000   0.00000E+000   0.00000E+000
   0.00000E+000   0.00000E+000   0.00000E+000   0.00000E+000   0.00000E+000   0.00000E+000   0.00000E+000   0.00000E+000   0.00000E+000
   0.00000E+000   0.00000E+000   0.00000E+000   0.00000E+000   0.00000E+000   0.00000E+000   0.00000E+000   0.00000E+000   0.00000E+000
   0.00000E+000   0.00000E+000   0.00000E+000   0.00000E+000   0.00000E+000   0.00000E+000   0.00000E+000   0.00000E+000   0.00000E+000
   0.00000E+000   0.00000E+000   0.00000E+000   0.00000E+000   0.00000E+000   0.00000E+000   0.00000E+000   0.00000E+000   0.00000E+000
   0.00000E+000   0.00000E+000   0.00000E+000   0.00000E+000   0.00000E+000   0.00000E+000   0.00000E+000   0.00000E+000   0.00000E+000
   0.00000E+000   0.00000E+000   0.00000E+000   0.00000E+000   0.00000E+000   0.00000E+000   0.00000E+000   0.00000E+000   0.00000E+000
   0.00000E+000   0.00000E+000   0.00000E+000   0.00000E+000   0.00000E+000   0.00000E+000   0.00000E+000   0.00000E+000   0.00000E+000
   0.00000E+000   0.00000E+000   0.00000E+000   0.00000E+000   0.00000E+000   0.00000E+000   0.00000E+000   0.00000E+000   0.00000E+000
   0.00000E+000   0.00000E+000   0.00000E+000   0.00000E+000   0.00000E+000   0.00000E+000   0.00000E+000   0.00000E+000   0.00000E+000
   0.00000E+000   0.00000E+000   0.00000E+000   0.00000E+000   0.00000E+000   0.00000E+000   0.00000E+000   0.00000E+000   0.00000E+000
   0.00000E+000   0.00000E+000   0.00000E+000   0.00000E+000   0.00000E+000   0.00000E+000   0.00000E+000   0.00000E+000   0.00000E+000
   0.00000E+000   0.00000E+000   0.00000E+000   0.00000E+000   0.00000E+000   0.00000E+000   0.00000E+000   0.00000E+000   0.00000E+000
   0.00000E+000   0.00000E+000   0.00000E+000   0.00000E+000   0.00000E+000   0.00000E+000   0.00000E+000   0.00000E+000   0.00000E+000
   0.00000E+000   0.00000E+000   0.00000E+000   0.00000E+000   0.00000E+000   0.00000E+000   0.00000E+000   0.00000E+000   0.00000E+000
   0.00000E+000   0.00000E+000   0.00000E+000   0.00000E+000   0.00000E+000   0.00000E+000   0.00000E+000   0.00000E+000   0.00000E+000
   0.00000E+000   0.00000E+000   0.00000E+000   0.00000E+000   0.00000E+000   0.00000E+000   0.00000E+000   0.00000E+000   0.00000E+000
   0.00000E+000   0.00000E+000   0.00000E+000   0.00000E+000   0.00000E+000   0.00000E+000   0.00000E+000   0.00000E+000   0.00000E+000
   0.00000E+000   0.00000E+000   0.00000E+000   0.00000E+000   0.00000E+000   0.00000E+000   0.00000E+000   0.00000E+000   0.00000E+000
   0.00000E+000   0.00000E+000   0.00000E+000   0.00000E+000   0.00000E+000   0.00000E+000   0.00000E+000   0.00000E+000   0.00000E+000
   0.00000E+000   0.00000E+000   0.00000E+000   0.00000E+000   0.00000E+000   0.00000E+000   0.00000E+000   0.00000E+000   0.00000E+000
   0.00000E+000   0.00000E+000   0.00000E+000   0.00000E+000   0.00000E+000   0.00000E+000   0.00000E+000   0.00000E+000   0.00000E+000
   0.00000E+000   0.00000E+000   0.00000E+000   0.00000E+000   0.00000E+000   0.00000E+000   0.00000E+000   0.00000E+000   0.00000E+000
   0.00000E+000   0.00000E+000   0.00000E+000   0.00000E+000   0.00000E+000   0.00000E+000   0.00000E+000   0.00000E+000   0.00000E+000
   0.00000E+000   0.00000E+000   0.00000E+000   0.00000E+000   0.00000E+000   0.00000E+000   0.00000E+000   0.00000E+000   0.00000E+000
   0.00000E+000   0.00000E+000   0.00000E+000   0.00000E+000   0.00000E+000   0.00000E+000   0.00000E+000   0.00000E+000   0.00000E+000
   0.00000E+000   0.00000E+000   0.00000E+000   0.00000E+000   0.00000E+000   0.00000E+000   0.00000E+000   0.00000E+000   0.00000E+000
   0.00000E+000   0.00000E+000   0.00000E+000   0.00000E+000   0.00000E+000   0.00000E+000   0.00000E+000   0.00000E+000   0.00000E+000
   0.00000E+000   0.00000E+000   0.00000E+000   0.00000E+000   0.00000E+000   0.00000E+000   0.00000E+000   0.00000E+000   0.00000E+000
   0.00000E+000   0.00000E+000   0.00000E+000   0.00000E+000   0.00000E+000   0.00000E+000   0.00000E+000   0.00000E+000   0.00000E+000
   0.00000E+000   0.00000E+000   0.00000E+000   0.00000E+000   0.00000E+000   0.00000E+000   0.00000E+000   0.00000E+000   0.00000E+000
   0.00000E+000   0.00000E+000   0.00000E+000   0.00000E+000   0.00000E+000   0.00000E+000   0.00000E+000   0.00000E+000   0.00000E+000
   0.00000E+000   0.00000E+000   0.00000E+000   0.00000E+000   0.00000E+000   0.00000E+000   0.00000E+000   0.00000E+000   0.00000E+000
   0.00000E+000   0.00000E+000   0.00000E+000   0.00000E+000   0.00000E+000   0.00000E+000   0.00000E+000   0.00000E+000   0.00000E+000
   0.00000E+000   0.00000E+000   0.00000E+000   0.00000E+000   0.00000E+000   0.00000E+000   0.00000E+000   0.00000E+000   0.00000E+000
   0.00000E+000   0.00000E+000   0.00000E+000   0.00000E+000   0.00000E+000   0.00000E+000   0.00000E+000   0.00000E+000   0.00000E+000
   0.00000E+000   0.00000E+000   0.00000E+000   0.00000E+000   0.00000E+000   0.00000E+000   0.00000E+000   0.00000E+000   0.00000E+000
   0.00000E+000   0.00000E+000   0.00000E+000   0.00000E+000   0.00000E+000   0.00000E+000   0.00000E+000   0.00000E+000   0.00000E+000
   0.00000E+000   0.00000E+000   0.00000E+000   0.00000E+000   0.00000E+000   0.00000E+000   0.00000E+000   0.00000E+000   0.00000E+000
   0.00000E+000   0.00000E+000   0.00000E+000   0.00000E+000   0.00000E+000   0.00000E+000   0.00000E+000   0.00000E+000   0.00000E+000
   0.00000E+000   0.00000E+000   0.00000E+000   0.00000E+000   0.00000E+000   0.00000E+000   0.00000E+000   0.00000E+000   0.00000E+000
   0.00000E+000   0.00000E+000   0.00000E+000   0.00000E+000   0.00000E+000   0.00000E+000   0.00000E+000   0.00000E+000   0.00000E+000
   0.00000E+000   0.00000E+000   0.00000E+000   0.00000E+000   0.00000E+000   0.00000E+000   0.00000E+000   0.00000E+000   0.00000E+000
   0.00000E+000   0.00000E+000   0.00000E+000   0.00000E+000   0.00000E+000   0.00000E+000   0.00000E+000   0.00000E+000   0.00000E+000
   0.00000E+000   0.00000E+000   0.00000E+000   0.00000E+000   0.00000E+000   0.00000E+000   0.00000E+000   0.00000E+000   0.00000E+000
   0.00000E+000   0.00000E+000   0.00000E+000   0.00000E+000   0.00000E+000   0.00000E+000   0.00000E+000   0.00000E+000   0.00000E+000
   0.00000E+000   0.00000E+000   0.00000E+000   0.00000E+000   0.00000E+000   0.00000E+000   0.00000E+000   0.00000E+000   0.00000E+000
   0.00000E+000   0.00000E+000   0.00000E+000   0.00000E+000   0.00000E+000   0.00000E+000   0.00000E+000   0.00000E+000   0.00000E+000
   0.00000E+000   0.00000E+000   0.00000E+000   0.00000E+000   0.00000E+000   0.00000E+000   0.00000E+000   0.00000E+000   0.00000E+000
   0.00000E+000   0.00000E+000   0.00000E+000   0.00000E+000   0.00000E+000   0.00000E+000   0.00000E+000   0.00000E+000   0.00000E+000
   0.00000E+000   0.00000E+000   0.00000E+000   0.00000E+000   0.00000E+000   0.00000E+000   0.00000E+000   0.00000E+000   0.00000E+000
   0.00000E+000   0.00000E+000   0.00000E+000   0.00000E+000   0.00000E+000   0.00000E+000   0.00000E+000   0.00000E+000   0.00000E+000
   0.00000E+000   0.00000E+000   0.00000E+000   0.00000E+000   0.00000E+000   0.00000E+000   0.00000E+000   0.00000E+000   0.00000E+000
   0.00000E+000   0.00000E+000   0.00000E+000   0.00000E+000   0.00000E+000   0.00000E+000   0.00000E+000   0.00000E+000   0.00000E+000
   0.00000E+000   0.00000E+000   0.00000E+000   0.00000E+000   0.00000E+000   0.00000E+000   0.00000E+000   0.00000E+000   0.00000E+000
   0.00000E+000   0.00000E+000   0.00000E+000   0.00000E+000   0.00000E+000   0.00000E+000   0.00000E+000   0.00000E+000   0.00000E+000
   0.00000E+000   0.00000E+000   0.00000E+000   0.00000E+000   0.00000E+000   0.00000E+000   0.00000E+000   0.00000E+000   0.00000E+000
   0.00000E+000   0.00000E+000   0.00000E+000   0.00000E+000   0.00000E+000   0.00000E+000   0.00000E+000   0.00000E+000   0.00000E+000
   0.00000E+000   0.00000E+000   0.00000E+000   0.00000E+000   0.00000E+000   0.00000E+000   0.00000E+000   0.00000E+000   0.00000E+000
   0.00000E+000   0.00000E+000   0.00000E+000   0.00000E+000   0.00000E+000   0.00000E+000   0.00000E+000   0.00000E+000   0.00000E+000
   0.00000E+000   0.00000E+000   0.00000E+000   0.00000E+000   0.00000E+000   0.00000E+000   0.00000E+000   0.00000E+000   0.00000E+000
   0.00000E+000   0.00000E+000   0.00000E+000   0.00000E+000   0.00000E+000   0.00000E+000   0.00000E+000   0.00000E+000   0.00000E+000
   0.00000E+000   0.00000E+000   0.00000E+000   0.00000E+000   0.00000E+000   0.00000E+000   0.00000E+000   0.00000E+000   0.00000E+000
   0.00000E+000   0.00000E+000   0.00000E+000   0.00000E+000   0.00000E+000   0.00000E+000   0.00000E+000   0.00000E+000   0.00000E+000
   0.00000E+000   0.00000E+000   0.00000E+000   0.00000E+000   0.00000E+000   0.00000E+000   0.00000E+000   0.00000E+000   0.00000E+000
   0.00000E+000   0.00000E+000   0.00000E+000   0.00000E+000   0.00000E+000   0.00000E+000   0.00000E+000   0.00000E+000   0.00000E+000
   0.00000E+000   0.00000E+000   0.00000E+000   0.00000E+000   0.00000E+000   0.00000E+000   0.00000E+000   0.00000E+000   0.00000E+000
   0.00000E+000   0.00000E+000   0.00000E+000   0.00000E+000   0.00000E+000   0.00000E+000   0.00000E+000   0.00000E+000   0.00000E+000
   0.00000E+000   0.00000E+000   0.00000E+000   0.00000E+000   0.00000E+000   0.00000E+000   0.00000E+000   0.00000E+000   0.00000E+000
   0.00000E+000   0.00000E+000   0.00000E+000   0.00000E+000   0.00000E+000   0.00000E+000   0.00000E+000   0.00000E+000   0.00000E+000
   0.00000E+000   0.00000E+000   0.00000E+000   0.00000E+000   0.00000E+000   0.00000E+000   0.00000E+000   0.00000E+000   0.00000E+000
   0.00000E+000   0.00000E+000   0.00000E+000   0.00000E+000   0.00000E+000   0.00000E+000   0.00000E+000   0.00000E+000   0.00000E+000
   0.00000E+000   0.00000E+000   0.00000E+000   0.00000E+000   0.00000E+000   0.00000E+000   0.00000E+000   0.00000E+000   0.00000E+000
   0.00000E+000   0.00000E+000   0.00000E+000   0.00000E+000   0.00000E+000   0.00000E+000   0.00000E+000   0.00000E+000   0.00000E+000
   0.00000E+000   0.00000E+000   0.00000E+000   0.00000E+000   0.00000E+000   0.00000E+000   0.00000E+000   0.00000E+000   0.00000E+000
   0.00000E+000   0.00000E+000   0.00000E+000   0.00000E+000   0.00000E+000   0.00000E+000   0.00000E+000   0.00000E+000   0.00000E+000
   0.00000E+000   0.00000E+000   0.00000E+000   0.00000E+000   0.00000E+000   0.00000E+000   0.00000E+000   0.00000E+000   0.00000E+000
   0.00000E+000   0.00000E+000   0.00000E+000   0.00000E+000   0.00000E+000   0.00000E+000   0.00000E+000   0.00000E+000   0.00000E+000
   0.00000E+000   0.00000E+000   0.00000E+000   0.00000E+000   0.00000E+000   0.00000E+000   0.00000E+000   0.00000E+000   0.00000E+000
   0.00000E+000   0.00000E+000   0.00000E+000   0.00000E+000   0.00000E+000   0.00000E+000   0.00000E+000   0.00000E+000   0.00000E+000
   0.00000E+000   0.00000E+000   0.00000E+000   0.00000E+000   0.00000E+000   0.00000E+000   0.00000E+000   0.00000E+000   0.00000E+000
   0.00000E+000   0.00000E+000   0.00000E+000   0.00000E+000   0.00000E+000   0.00000E+000   0.00000E+000   0.00000E+000   0.00000E+000
   0.00000E+000   0.00000E+000   0.00000E+000   0.00000E+000   0.00000E+000   0.00000E+000   0.00000E+000   0.00000E+000   0.00000E+000
   0.00000E+000   0.00000E+000   0.00000E+000   0.00000E+000   0.00000E+000   0.00000E+000   0.00000E+000   0.00000E+000   0.00000E+000
   0.00000E+000   0.00000E+000   0.00000E+000   0.00000E+000   0.00000E+000   0.00000E+000   0.00000E+000   0.00000E+000   0.00000E+000
   0.00000E+000   0.00000E+000   0.00000E+000   0.00000E+000   0.00000E+000   0.00000E+000   0.00000E+000   0.00000E+000   0.00000E+000
   0.00000E+000   0.00000E+000   0.00000E+000   0.00000E+000   0.00000E+000   0.00000E+000   0.00000E+000   0.00000E+000   0.00000E+000
   0.00000E+000   0.00000E+000   0.00000E+000   0.00000E+000   0.00000E+000   0.00000E+000   0.00000E+000   0.00000E+000   0.00000E+000
   0.00000E+000   0.00000E+000   0.00000E+000   0.00000E+000   0.00000E+000   0.00000E+000   0.00000E+000   0.00000E+000   0.00000E+000
   0.00000E+000   0.00000E+000   0.00000E+000   0.00000E+000   0.00000E+000   0.00000E+000   0.00000E+000   0.00000E+000   0.00000E+000
   0.00000E+000   0.00000E+000   0.00000E+000   0.00000E+000   0.00000E+000   0.00000E+000   0.00000E+000   0.00000E+000   0.00000E+000
   0.00000E+000   0.00000E+000   0.00000E+000   0.00000E+000   0.00000E+000   0.00000E+000   0.00000E+000   0.00000E+000   0.00000E+000
   0.00000E+000   0.00000E+000   0.00000E+000   0.00000E+000   0.00000E+000   0.00000E+000   0.00000E+000   0.00000E+000   0.00000E+000
   0.00000E+000   0.00000E+000   0.00000E+000   0.00000E+000   0.00000E+000   0.00000E+000   0.00000E+000   0.00000E+000   0.00000E+000
   0.00000E+000   0.00000E+000   0.00000E+000   0.00000E+000   0.00000E+000   0.00000E+000   0.00000E+000   0.00000E+000   0.00000E+000
   0.00000E+000   0.00000E+000   0.00000E+000   0.00000E+000   0.00000E+000   0.00000E+000   0.00000E+000   0.00000E+000   0.00000E+000
   0.00000E+000   0.00000E+000   0.00000E+000   0.00000E+000   0.00000E+000   0.00000E+000   0.00000E+000   0.00000E+000   0.00000E+000
   0.00000E+000   0.00000E+000   0.00000E+000   0.00000E+000   0.00000E+000   0.00000E+000   0.00000E+000   0.00000E+000   0.00000E+000
   0.00000E+000   0.00000E+000   0.00000E+000   0.00000E+000   0.00000E+000   0.00000E+000   0.00000E+000   0.00000E+000   0.00000E+000
   0.00000E+000   0.00000E+000   0.00000E+000   0.00000E+000   0.00000E+000   0.00000E+000   0.00000E+000   0.00000E+000   0.00000E+000
   0.00000E+000   0.00000E+000   0.00000E+000   0.00000E+000   0.00000E+000   0.00000E+000   0.00000E+000   0.00000E+000   0.00000E+000
   0.00000E+000   0.00000E+000   0.00000E+000   0.00000E+000   0.00000E+000   0.00000E+000   0.00000E+000   0.00000E+000   0.00000E+000
   0.00000E+000   0.00000E+000   0.00000E+000   0.00000E+000   0.00000E+000   0.00000E+000   0.00000E+000   0.00000E+000   0.00000E+000
   0.00000E+000   0.00000E+000   0.00000E+000   0.00000E+000   0.00000E+000   0.00000E+000   0.00000E+000   0.00000E+000   0.00000E+000
   0.00000E+000   0.00000E+000   0.00000E+000   0.00000E+000   0.00000E+000   0.00000E+000   0.00000E+000   0.00000E+000   0.00000E+000
   0.00000E+000   0.00000E+000   0.00000E+000   0.00000E+000   0.00000E+000   0.00000E+000   0.00000E+000   0.00000E+000   0.00000E+000
   0.00000E+000   0.00000E+000   0.00000E+000   0.00000E+000   0.00000E+000   0.00000E+000   0.00000E+000   0.00000E+000   0.00000E+000
   0.00000E+000   0.00000E+000   0.00000E+000   0.00000E+000   0.00000E+000   0.00000E+000   0.00000E+000   0.00000E+000   0.00000E+000
   0.00000E+000   0.00000E+000   0.00000E+000   0.00000E+000   0.00000E+000   0.00000E+000   0.00000E+000   0.00000E+000   0.00000E+000
   0.00000E+000   0.00000E+000   0.00000E+000   0.00000E+000   0.00000E+000   0.00000E+000   0.00000E+000   0.00000E+000   0.00000E+000
   0.00000E+000   0.00000E+000   0.00000E+000   0.00000E+000   0.00000E+000   0.00000E+000   0.00000E+000   0.00000E+000   0.00000E+000
   0.00000E+000   0.00000E+000   0.00000E+000   0.00000E+000   0.00000E+000   0.00000E+000   0.00000E+000   0.00000E+000   0.00000E+000
   0.00000E+000   0.00000E+000   0.00000E+000   0.00000E+000   0.00000E+000   0.00000E+000   0.00000E+000   0.00000E+000   0.00000E+000
   0.00000E+000   0.00000E+000   0.00000E+000   0.00000E+000   0.00000E+000   0.00000E+000   0.00000E+000   0.00000E+000   0.00000E+000
   0.00000E+000   0.00000E+000   0.00000E+000   0.00000E+000   0.00000E+000   0.00000E+000   0.00000E+000   0.00000E+000   0.00000E+000
   0.00000E+000   0.00000E+000   0.00000E+000   0.00000E+000   0.00000E+000   0.00000E+000   0.00000E+000   0.00000E+000   0.00000E+000
   0.00000E+000   0.00000E+000   0.00000E+000   0.00000E+000   0.00000E+000   0.00000E+000   0.00000E+000   0.00000E+000   0.00000E+000
   0.00000E+000   0.00000E+000   0.00000E+000   0.00000E+000   0.00000E+000   0.00000E+000   0.00000E+000   0.00000E+000   0.00000E+000
   0.00000E+000   0.00000E+000   0.00000E+000   0.00000E+000   0.00000E+000   0.00000E+000   0.00000E+000   0.00000E+000   0.00000E+000
   0.00000E+000   0.00000E+000   0.00000E+000   0.00000E+000   0.00000E+000   0.00000E+000   0.00000E+000   0.00000E+000   0.00000E+000
   0.00000E+000   0.00000E+000   0.00000E+000   0.00000E+000   0.00000E+000   0.00000E+000   0.00000E+000   0.00000E+000   0.00000E+000
   0.00000E+000   0.00000E+000   0.00000E+000   0.00000E+000   0.00000E+000   0.00000E+000   0.00000E+000   0.00000E+000   0.00000E+000
   0.00000E+000   0.00000E+000   0.00000E+000   0.00000E+000   0.00000E+000   0.00000E+000   0.00000E+000   0.00000E+000   0.00000E+000
   0.00000E+000   0.00000E+000   0.00000E+000   0.00000E+000   0.00000E+000   0.00000E+000   0.00000E+000   0.00000E+000   0.00000E+000
   0.00000E+000   0.00000E+000   0.00000E+000   0.00000E+000   0.00000E+000   0.00000E+000   0.00000E+000   0.00000E+000   0.00000E+000
   0.00000E+000   0.00000E+000   0.00000E+000   0.00000E+000   0.00000E+000   0.00000E+000   0.00000E+000   0.00000E+000   0.00000E+000
   0.00000E+000   0.00000E+000   0.00000E+000   0.00000E+000   0.00000E+000   0.00000E+000   0.00000E+000   0.00000E+000   0.00000E+000
   0.00000E+000   0.00000E+000   0.00000E+000   0.00000E+000   0.00000E+000   0.00000E+000   0.00000E+000   0.00000E+000   0.00000E+000
   0.00000E+000   0.00000E+000   0.00000E+000   0.00000E+000   0.00000E+000   0.00000E+000   0.00000E+000   0.00000E+000   0.00000E+000
   0.00000E+000   0.00000E+000   0.00000E+000   0.00000E+000   0.00000E+000   0.00000E+000   0.00000E+000   0.00000E+000   0.00000E+000
   0.00000E+000   0.00000E+000   0.00000E+000   0.00000E+000   0.00000E+000   0.00000E+000   0.00000E+000   0.00000E+000   0.00000E+000
   0.00000E+000   0.00000E+000   0.00000E+000   0.00000E+000   0.00000E+000   0.00000E+000   0.00000E+000   0.00000E+000   0.00000E+000
   0.00000E+000   0.00000E+000   0.00000E+000   0.00000E+000   0.00000E+000   0.00000E+000   0.00000E+000   0.00000E+000   0.00000E+000
   0.00000E+000   0.00000E+000   0.00000E+000   0.00000E+000   0.00000E+000   0.00000E+000   0.00000E+000   0.00000E+000   0.00000E+000
   0.00000E+000   0.00000E+000   0.00000E+000   0.00000E+000   0.00000E+000   0.00000E+000   0.00000E+000   0.00000E+000   0.00000E+000
   0.00000E+000   0.00000E+000   0.00000E+000   0.00000E+000   0.00000E+000   0.00000E+000   0.00000E+000   0.00000E+000   0.00000E+000
   0.00000E+000   0.00000E+000   0.00000E+000   0.00000E+000   0.00000E+000   0.00000E+000   0.00000E+000   0.00000E+000   0.00000E+000
   0.00000E+000   0.00000E+000   0.00000E+000   0.00000E+000   0.00000E+000   0.00000E+000   0.00000E+000   0.00000E+000   0.00000E+000
   0.00000E+000   0.00000E+000   0.00000E+000   0.00000E+000   0.00000E+000   0.00000E+000   0.00000E+000   0.00000E+000   0.00000E+000
   0.00000E+000   0.00000E+000   0.00000E+000   0.00000E+000   0.00000E+000   0.00000E+000   0.00000E+000   0.00000E+000   0.00000E+000
   0.00000E+000   0.00000E+000   0.00000E+000   0.00000E+000   0.00000E+000   0.00000E+000   0.00000E+000   0.00000E+000   0.00000E+000
   0.00000E+000   0.00000E+000   0.00000E+000   0.00000E+000   0.00000E+000   0.00000E+000   0.00000E+000   0.00000E+000   0.00000E+000
   0.00000E+000   0.00000E+000   0.00000E+000   0.00000E+000   0.00000E+000   0.00000E+000   0.00000E+000   0.00000E+000   0.00000E+000
   0.00000E+000   0.00000E+000   0.00000E+000   0.00000E+000   0.00000E+000   0.00000E+000   0.00000E+000   0.00000E+000   0.00000E+000
   0.00000E+000   0.00000E+000   0.00000E+000   0.00000E+000   0.00000E+000   0.00000E+000   0.00000E+000   0.00000E+000   0.00000E+000
   0.00000E+000   0.00000E+000   0.00000E+000   0.00000E+000   0.00000E+000   0.00000E+000   0.00000E+000   0.00000E+000   0.00000E+000
   0.00000E+000   0.00000E+000   0.00000E+000   0.00000E+000   0.00000E+000   0.00000E+000   0.00000E+000   0.00000E+000   0.00000E+000
   0.00000E+000   0.00000E+000   0.00000E+000   0.00000E+000   0.00000E+000   0.00000E+000   0.00000E+000   0.00000E+000   0.00000E+000
   0.00000E+000   0.00000E+000   0.00000E+000   0.00000E+000   0.00000E+000   0.00000E+000   0.00000E+000   0.00000E+000   0.00000E+000
   0.00000E+000   0.00000E+000   0.00000E+000   0.00000E+000   0.00000E+000   0.00000E+000   0.00000E+000   0.00000E+000   0.00000E+000
   0.00000E+000   0.00000E+000   0.00000E+000   0.00000E+000   0.00000E+000   0.00000E+000   0.00000E+000   0.00000E+000   0.00000E+000
   0.00000E+000   0.00000E+000   0.00000E+000   0.00000E+000   0.00000E+000   0.00000E+000   0.00000E+000   0.00000E+000   0.00000E+000
   0.00000E+000   0.00000E+000   0.00000E+000   0.00000E+000   0.00000E+000   0.00000E+000   0.00000E+000   0.00000E+000   0.00000E+000
   0.00000E+000   0.00000E+000   0.00000E+000   0.00000E+000   0.00000E+000   0.00000E+000   0.00000E+000   0.00000E+000   0.00000E+000
   0.00000E+000   0.00000E+000   0.00000E+000   0.00000E+000   0.00000E+000   0.00000E+000   0.00000E+000   0.00000E+000   0.00000E+000
   0.00000E+000   0.00000E+000   0.00000E+000   0.00000E+000   0.00000E+000   0.00000E+000   0.00000E+000   0.00000E+000   0.00000E+000
   0.00000E+000   0.00000E+000   0.00000E+000   0.00000E+000   0.00000E+000   0.00000E+000   0.00000E+000   0.00000E+000   0.00000E+000
   0.00000E+000   0.00000E+000   0.00000E+000   0.00000E+000   0.00000E+000   0.00000E+000   0.00000E+000   0.00000E+000   0.00000E+000
   0.00000E+000   0.00000E+000   0.00000E+000   0.00000E+000   0.00000E+000   0.00000E+000   0.00000E+000   0.00000E+000   0.00000E+000
   0.00000E+000   0.00000E+000   0.00000E+000   0.00000E+000   0.00000E+000   0.00000E+000   0.00000E+000   0.00000E+000   0.00000E+000
   0.00000E+000   0.00000E+000   0.00000E+000   0.00000E+000   0.00000E+000   0.00000E+000   0.00000E+000   0.00000E+000   0.00000E+000
   0.00000E+000   0.00000E+000   0.00000E+000   0.00000E+000   0.00000E+000   0.00000E+000   0.00000E+000   0.00000E+000   0.00000E+000
   0.00000E+000   0.00000E+000   0.00000E+000   0.00000E+000   0.00000E+000   0.00000E+000   0.00000E+000   0.00000E+000   0.00000E+000
   0.00000E+000   0.00000E+000   0.00000E+000   0.00000E+000   0.00000E+000   0.00000E+000   0.00000E+000   0.00000E+000   0.00000E+000
   0.00000E+000   0.00000E+000   0.00000E+000   0.00000E+000   0.00000E+000   0.00000E+000   0.00000E+000   0.00000E+000   0.00000E+000
   0.00000E+000   0.00000E+000   0.00000E+000   0.00000E+000   0.00000E+000   0.00000E+000   0.00000E+000   0.00000E+000   0.00000E+000
   0.00000E+000   0.00000E+000   0.00000E+000   0.00000E+000   0.00000E+000   0.00000E+000   0.00000E+000   0.00000E+000   0.00000E+000
   0.00000E+000   0.00000E+000   0.00000E+000   0.00000E+000   0.00000E+000   0.00000E+000   0.00000E+000   0.00000E+000   0.00000E+000
   0.00000E+000   0.00000E+000   0.00000E+000   0.00000E+000   0.00000E+000   0.00000E+000   0.00000E+000   0.00000E+000   0.00000E+000
   0.00000E+000   0.00000E+000   0.00000E+000   0.00000E+000   0.00000E+000   0.00000E+000   0.00000E+000   0.00000E+000   0.00000E+000
   0.00000E+000   0.00000E+000   0.00000E+000   0.00000E+000   0.00000E+000   0.00000E+000   0.00000E+000   0.00000E+000   0.00000E+000
   0.00000E+000   0.00000E+000   0.00000E+000   0.00000E+000   0.00000E+000   0.00000E+000   0.00000E+000   0.00000E+000   0.00000E+000
   0.00000E+000   0.00000E+000   0.00000E+000   0.00000E+000   0.00000E+000   0.00000E+000   0.00000E+000   0.00000E+000   0.00000E+000
   0.00000E+000   0.00000E+000   0.00000E+000   0.00000E+000   0.00000E+000   0.00000E+000   0.00000E+000   0.00000E+000   0.00000E+000
   0.00000E+000   0.00000E+000   0.00000E+000   0.00000E+000   0.00000E+000   0.00000E+000   0.00000E+000   0.00000E+000   0.00000E+000
   0.00000E+000   0.00000E+000   0.00000E+000   0.00000E+000   0.00000E+000   0.00000E+000   0.00000E+000   0.00000E+000   0.00000E+000
   0.00000E+000   0.00000E+000   0.00000E+000   0.00000E+000   0.00000E+000   0.00000E+000   0.00000E+000   0.00000E+000   0.00000E+000
   0.00000E+000   0.00000E+000   0.00000E+000   0.00000E+000   0.00000E+000   0.00000E+000   0.00000E+000   0.00000E+000   0.00000E+000
   0.00000E+000   0.00000E+000   0.00000E+000   0.00000E+000   0.00000E+000   0.00000E+000   0.00000E+000   0.00000E+000   0.00000E+000
   0.00000E+000   0.00000E+000   0.00000E+000   0.00000E+000   0.00000E+000   0.00000E+000   0.00000E+000   0.00000E+000   0.00000E+000
   0.00000E+000   0.00000E+000   0.00000E+000   0.00000E+000   0.00000E+000   0.00000E+000   0.00000E+000   0.00000E+000   0.00000E+000
   0.00000E+000   0.00000E+000   0.00000E+000   0.00000E+000   0.00000E+000   0.00000E+000   0.00000E+000   0.00000E+000   0.00000E+000
   0.00000E+000   0.00000E+000   0.00000E+000   0.00000E+000   0.00000E+000   0.00000E+000   0.00000E+000   0.00000E+000   0.00000E+000
   0.00000E+000   0.00000E+000   0.00000E+000   0.00000E+000   0.00000E+000   0.00000E+000   0.00000E+000   0.00000E+000   0.00000E+000
   0.00000E+000   0.00000E+000   0.00000E+000   0.00000E+000   0.00000E+000   0.00000E+000   0.00000E+000   0.00000E+000   0.00000E+000
   0.00000E+000   0.00000E+000   0.00000E+000   0.00000E+000   0.00000E+000   0.00000E+000   0.00000E+000   0.00000E+000   0.00000E+000
   0.00000E+000   0.00000E+000   0.00000E+000   0.00000E+000   0.00000E+000   0.00000E+000   0.00000E+000   0.00000E+000   0.00000E+000
   0.00000E+000   0.00000E+000   0.00000E+000   0.00000E+000   0.00000E+000   0.00000E+000   0.00000E+000   0.00000E+000   0.00000E+000
   0.00000E+000   0.00000E+000   0.00000E+000   0.00000E+000   0.00000E+000   0.00000E+000   0.00000E+000   0.00000E+000   0.00000E+000
   0.00000E+000   0.00000E+000   0.00000E+000   0.00000E+000   0.00000E+000   0.00000E+000   0.00000E+000   0.00000E+000   0.00000E+000
   0.00000E+000   0.00000E+000   0.00000E+000   0.00000E+000   0.00000E+000   0.00000E+000   0.00000E+000   0.00000E+000   0.00000E+000
   0.00000E+000   0.00000E+000   0.00000E+000   0.00000E+000   0.00000E+000   0.00000E+000   0.00000E+000   0.00000E+000   0.00000E+000
   0.00000E+000   0.00000E+000   0.00000E+000   0.00000E+000   0.00000E+000   0.00000E+000   0.00000E+000   0.00000E+000   0.00000E+000
   0.00000E+000   0.00000E+000   0.00000E+000   0.00000E+000   0.00000E+000   0.00000E+000   0.00000E+000   0.00000E+000   0.00000E+000
   0.00000E+000   0.00000E+000   0.00000E+000   0.00000E+000   0.00000E+000   0.00000E+000   0.00000E+000   0.00000E+000   0.00000E+000
   0.00000E+000   0.00000E+000   0.00000E+000   0.00000E+000   0.00000E+000   0.00000E+000   0.00000E+000   0.00000E+000   0.00000E+000
   0.00000E+000   0.00000E+000   0.00000E+000   0.00000E+000   0.00000E+000   0.00000E+000   0.00000E+000   0.00000E+000   0.00000E+000
   0.00000E+000   0.00000E+000   0.00000E+000   0.00000E+000   0.00000E+000   0.00000E+000   0.00000E+000   0.00000E+000   0.00000E+000
   0.00000E+000   0.00000E+000   0.00000E+000   0.00000E+000   0.00000E+000   0.00000E+000   0.00000E+000   0.00000E+000   0.00000E+000
   0.00000E+000   0.00000E+000   0.00000E+000   0.00000E+000   0.00000E+000   0.00000E+000   0.00000E+000   0.00000E+000   0.00000E+000
   0.00000E+000   0.00000E+000   0.00000E+000   0.00000E+000   0.00000E+000   0.00000E+000   0.00000E+000   0.00000E+000   0.00000E+000
   0.00000E+000   0.00000E+000   0.00000E+000   0.00000E+000   0.00000E+000   0.00000E+000   0.00000E+000   0.00000E+000   0.00000E+000
   0.00000E+000   0.00000E+000   0.00000E+000   0.00000E+000   0.00000E+000   0.00000E+000   0.00000E+000   0.00000E+000   0.00000E+000
   0.00000E+000   0.00000E+000   0.00000E+000   0.00000E+000   0.00000E+000   0.00000E+000   0.00000E+000   0.00000E+000   0.00000E+000
   0.00000E+000   0.00000E+000   0.00000E+000   0.00000E+000   0.00000E+000   0.00000E+000   0.00000E+000   0.00000E+000   0.00000E+000
   0.00000E+000   0.00000E+000   0.00000E+000   0.00000E+000   0.00000E+000   0.00000E+000   0.00000E+000   0.00000E+000   0.00000E+000
   0.00000E+000   0.00000E+000   0.00000E+000   0.00000E+000   0.00000E+000   0.00000E+000   0.00000E+000   0.00000E+000   0.00000E+000
   0.00000E+000   0.00000E+000   0.00000E+000   0.00000E+000   0.00000E+000   0.00000E+000   0.00000E+000   0.00000E+000   0.00000E+000
   0.00000E+000   0.00000E+000   0.00000E+000   0.00000E+000   0.00000E+000   0.00000E+000   0.00000E+000   0.00000E+000   0.00000E+000
   0.00000E+000   0.00000E+000   0.00000E+000   0.00000E+000   0.00000E+000   0.00000E+000   0.00000E+000   0.00000E+000   0.00000E+000
   0.00000E+000   0.00000E+000   0.00000E+000   0.00000E+000   0.00000E+000   0.00000E+000   0.00000E+000   0.00000E+000   0.00000E+000
   0.00000E+000   0.00000E+000   0.00000E+000   0.00000E+000   0.00000E+000   0.00000E+000   0.00000E+000   0.00000E+000   0.00000E+000
   0.00000E+000   0.00000E+000   0.00000E+000   0.00000E+000   0.00000E+000   0.00000E+000   0.00000E+000   0.00000E+000   0.00000E+000
   0.00000E+000   0.00000E+000   0.00000E+000   0.00000E+000   0.00000E+000   0.00000E+000   0.00000E+000   0.00000E+000   0.00000E+000
   0.00000E+000   0.00000E+000   0.00000E+000   0.00000E+000   0.00000E+000   0.00000E+000   0.00000E+000   0.00000E+000   0.00000E+000
   0.00000E+000   0.00000E+000   0.00000E+000   0.00000E+000   0.00000E+000   0.00000E+000   0.00000E+000   0.00000E+000   0.00000E+000
   0.00000E+000   0.00000E+000   0.00000E+000   0.00000E+000   0.00000E+000   0.00000E+000   0.00000E+000   0.00000E+000   0.00000E+000
   0.00000E+000   0.00000E+000   0.00000E+000   0.00000E+000   0.00000E+000   0.00000E+000   0.00000E+000   0.00000E+000   0.00000E+000
   0.00000E+000   0.00000E+000   0.00000E+000   0.00000E+000   0.00000E+000   0.00000E+000   0.00000E+000   0.00000E+000   0.00000E+000
   0.00000E+000   0.00000E+000   0.00000E+000   0.00000E+000   0.00000E+000   0.00000E+000   0.00000E+000   0.00000E+000   0.00000E+000
   0.00000E+000   0.00000E+000   0.00000E+000   0.00000E+000   0.00000E+000   0.00000E+000   0.00000E+000   0.00000E+000   0.00000E+000
   0.00000E+000   0.00000E+000   0.00000E+000   0.00000E+000   0.00000E+000   0.00000E+000   0.00000E+000   0.00000E+000   0.00000E+000
   0.00000E+000   0.00000E+000   0.00000E+000   0.00000E+000   0.00000E+000   0.00000E+000   0.00000E+000   0.00000E+000   0.00000E+000
   0.00000E+000   0.00000E+000   0.00000E+000   0.00000E+000   0.00000E+000   0.00000E+000   0.00000E+000   0.00000E+000   0.00000E+000
   0.00000E+000   0.00000E+000   0.00000E+000   0.00000E+000   0.00000E+000   0.00000E+000   0.00000E+000   0.00000E+000   0.00000E+000
   0.00000E+000   0.00000E+000   0.00000E+000   0.00000E+000   0.00000E+000   0.00000E+000   0.00000E+000   0.00000E+000   0.00000E+000
   0.00000E+000   0.00000E+000   0.00000E+000   0.00000E+000   0.00000E+000   0.00000E+000   0.00000E+000   0.00000E+000   0.00000E+000
   0.00000E+000   0.00000E+000   0.00000E+000   0.00000E+000   0.00000E+000   0.00000E+000   0.00000E+000   0.00000E+000   0.00000E+000
   0.00000E+000   0.00000E+000   0.00000E+000   0.00000E+000   0.00000E+000   0.00000E+000   0.00000E+000   0.00000E+000   0.00000E+000
   0.00000E+000   0.00000E+000   0.00000E+000   0.00000E+000   0.00000E+000   0.00000E+000   0.00000E+000   0.00000E+000   0.00000E+000
   0.00000E+000   0.00000E+000   0.00000E+000   0.00000E+000   0.00000E+000   0.00000E+000   0.00000E+000   0.00000E+000   0.00000E+000
   0.00000E+000   0.00000E+000   0.00000E+000   0.00000E+000   0.00000E+000   0.00000E+000   0.00000E+000   0.00000E+000   0.00000E+000
   0.00000E+000   0.00000E+000   0.00000E+000   0.00000E+000   0.00000E+000   0.00000E+000   0.00000E+000   0.00000E+000   0.00000E+000
   0.00000E+000   0.00000E+000   0.00000E+000   0.00000E+000   0.00000E+000   0.00000E+000   0.00000E+000   0.00000E+000   0.00000E+000
   0.00000E+000   0.00000E+000   0.00000E+000   0.00000E+000   0.00000E+000   0.00000E+000   0.00000E+000   0.00000E+000   0.00000E+000
   0.00000E+000   0.00000E+000   0.00000E+000   0.00000E+000   0.00000E+000   0.00000E+000   0.00000E+000   0.00000E+000   0.00000E+000
   0.00000E+000   0.00000E+000   0.00000E+000   0.00000E+000   0.00000E+000   0.00000E+000   0.00000E+000   0.00000E+000   0.00000E+000
   0.00000E+000   0.00000E+000   0.00000E+000   0.00000E+000   0.00000E+000   0.00000E+000   0.00000E+000   0.00000E+000   0.00000E+000
   0.00000E+000   0.00000E+000   0.00000E+000   0.00000E+000   0.00000E+000   0.00000E+000   0.00000E+000   0.00000E+000   0.00000E+000
   0.00000E+000   0.00000E+000   0.00000E+000   0.00000E+000   0.00000E+000   0.00000E+000   0.00000E+000   0.00000E+000   0.00000E+000
   0.00000E+000   0.00000E+000   0.00000E+000   0.00000E+000   0.00000E+000   0.00000E+000   0.00000E+000   0.00000E+000   0.00000E+000
   0.00000E+000   0.00000E+000   0.00000E+000   0.00000E+000   0.00000E+000   0.00000E+000   0.00000E+000   0.00000E+000   0.00000E+000
   0.00000E+000   0.00000E+000   0.00000E+000   0.00000E+000   0.00000E+000   0.00000E+000   0.00000E+000   0.00000E+000   0.00000E+000
   0.00000E+000   0.00000E+000   0.00000E+000   0.00000E+000   0.00000E+000   0.00000E+000   0.00000E+000   0.00000E+000   0.00000E+000
   0.00000E+000   0.00000E+000   0.00000E+000   0.00000E+000   0.00000E+000   0.00000E+000   0.00000E+000   0.00000E+000   0.00000E+000
   0.00000E+000   0.00000E+000   0.00000E+000   0.00000E+000   0.00000E+000   0.00000E+000   0.00000E+000   0.00000E+000   0.00000E+000
   0.00000E+000   0.00000E+000   0.00000E+000   0.00000E+000   0.00000E+000   0.00000E+000   0.00000E+000   0.00000E+000   0.00000E+000
   0.00000E+000   0.00000E+000   0.00000E+000   0.00000E+000   0.00000E+000   0.00000E+000   0.00000E+000   0.00000E+000   0.00000E+000
   0.00000E+000   0.00000E+000   0.00000E+000   0.00000E+000   0.00000E+000   0.00000E+000   0.00000E+000   0.00000E+000   0.00000E+000
   0.00000E+000   0.00000E+000   0.00000E+000   0.00000E+000   0.00000E+000   0.00000E+000   0.00000E+000   0.00000E+000   0.00000E+000
   0.00000E+000   0.00000E+000   0.00000E+000   0.00000E+000   0.00000E+000   0.00000E+000   0.00000E+000   0.00000E+000   0.00000E+000
   0.00000E+000   0.00000E+000   0.00000E+000   0.00000E+000   0.00000E+000   0.00000E+000   0.00000E+000   0.00000E+000   0.00000E+000
   0.00000E+000   0.00000E+000   0.00000E+000   0.00000E+000   0.00000E+000   0.00000E+000   0.00000E+000   0.00000E+000   0.00000E+000
   0.00000E+000   0.00000E+000   0.00000E+000   0.00000E+000   0.00000E+000   0.00000E+000   0.00000E+000   0.00000E+000   0.00000E+000
   0.00000E+000   0.00000E+000   0.00000E+000   0.00000E+000   0.00000E+000   0.00000E+000   0.00000E+000   0.00000E+000   0.00000E+000
   0.00000E+000   0.00000E+000   0.00000E+000   0.00000E+000   0.00000E+000   0.00000E+000   0.00000E+000   0.00000E+000   0.00000E+000
   0.00000E+000   0.00000E+000   0.00000E+000   0.00000E+000   0.00000E+000   0.00000E+000   0.00000E+000   0.00000E+000   0.00000E+000
   0.00000E+000   0.00000E+000   0.00000E+000   0.00000E+000   0.00000E+000   0.00000E+000   0.00000E+000   0.00000E+000   0.00000E+000
   0.00000E+000   0.00000E+000   0.00000E+000   0.00000E+000   0.00000E+000   0.00000E+000   0.00000E+000   0.00000E+000   0.00000E+000
   0.00000E+000   0.00000E+000   0.00000E+000   0.00000E+000   0.00000E+000   0.00000E+000   0.00000E+000   0.00000E+000   0.00000E+000
   0.00000E+000   0.00000E+000   0.00000E+000   0.00000E+000   0.00000E+000   0.00000E+000   0.00000E+000   0.00000E+000   0.00000E+000
   0.00000E+000   0.00000E+000   0.00000E+000   0.00000E+000   0.00000E+000   0.00000E+000   0.00000E+000   0.00000E+000   0.00000E+000
   0.00000E+000   0.00000E+000   0.00000E+000   0.00000E+000   0.00000E+000   0.00000E+000   0.00000E+000   0.00000E+000   0.00000E+000
   0.00000E+000   0.00000E+000   0.00000E+000   0.00000E+000   0.00000E+000   0.00000E+000   0.00000E+000   0.00000E+000   0.00000E+000
   0.00000E+000   0.00000E+000   0.00000E+000   0.00000E+000   0.00000E+000   0.00000E+000   0.00000E+000   0.00000E+000   0.00000E+000
   0.00000E+000   0.00000E+000   0.00000E+000   0.00000E+000   0.00000E+000   0.00000E+000   0.00000E+000   0.00000E+000   0.00000E+000
   0.00000E+000   0.00000E+000   0.00000E+000   0.00000E+000   0.00000E+000   0.00000E+000   0.00000E+000   0.00000E+000   0.00000E+000
   0.00000E+000   0.00000E+000   0.00000E+000   0.00000E+000   0.00000E+000   0.00000E+000   0.00000E+000   0.00000E+000   0.00000E+000
   0.00000E+000   0.00000E+000   0.00000E+000   0.00000E+000   0.00000E+000   0.00000E+000   0.00000E+000   0.00000E+000   0.00000E+000
   0.00000E+000   0.00000E+000   0.00000E+000   0.00000E+000   0.00000E+000   0.00000E+000   0.00000E+000   0.00000E+000   0.00000E+000
   0.00000E+000   0.00000E+000   0.00000E+000   0.00000E+000   0.00000E+000   0.00000E+000   0.00000E+000   0.00000E+000   0.00000E+000
   0.00000E+000   0.00000E+000   0.00000E+000   0.00000E+000   0.00000E+000   0.00000E+000   0.00000E+000   0.00000E+000   0.00000E+000
   0.00000E+000   0.00000E+000   0.00000E+000   0.00000E+000   0.00000E+000   0.00000E+000   0.00000E+000   0.00000E+000   0.00000E+000
   0.00000E+000   0.00000E+000   0.00000E+000   0.00000E+000   0.00000E+000   0.00000E+000   0.00000E+000   0.00000E+000   0.00000E+000
   0.00000E+000   0.00000E+000   0.00000E+000   0.00000E+000   0.00000E+000   0.00000E+000   0.00000E+000   0.00000E+000   0.00000E+000
   0.00000E+000   0.00000E+000   0.00000E+000   0.00000E+000   0.00000E+000   0.00000E+000   0.00000E+000   0.00000E+000   0.00000E+000
   0.00000E+000   0.00000E+000   0.00000E+000   0.00000E+000   0.00000E+000   0.00000E+000   0.00000E+000   0.00000E+000   0.00000E+000
   0.00000E+000   0.00000E+000   0.00000E+000   0.00000E+000   0.00000E+000   0.00000E+000   0.00000E+000   0.00000E+000   0.00000E+000
   0.00000E+000   0.00000E+000   0.00000E+000   0.00000E+000   0.00000E+000   0.00000E+000   0.00000E+000   0.00000E+000   0.00000E+000
   0.00000E+000   0.00000E+000   0.00000E+000   0.00000E+000   0.00000E+000   0.00000E+000   0.00000E+000   0.00000E+000   0.00000E+000
   0.00000E+000   0.00000E+000   0.00000E+000   0.00000E+000   0.00000E+000   0.00000E+000   0.00000E+000   0.00000E+000   0.00000E+000
   0.00000E+000   0.00000E+000   0.00000E+000   0.00000E+000   0.00000E+000   0.00000E+000   0.00000E+000   0.00000E+000   0.00000E+000
   0.00000E+000   0.00000E+000   0.00000E+000   0.00000E+000   0.00000E+000   0.00000E+000   0.00000E+000   0.00000E+000   0.00000E+000
   0.00000E+000   0.00000E+000   0.00000E+000   0.00000E+000   0.00000E+000   0.00000E+000   0.00000E+000   0.00000E+000   0.00000E+000
   0.00000E+000   0.00000E+000   0.00000E+000   0.00000E+000   0.00000E+000   0.00000E+000   0.00000E+000   0.00000E+000   0.00000E+000
   0.00000E+000   0.00000E+000   0.00000E+000   0.00000E+000   0.00000E+000   0.00000E+000   0.00000E+000   0.00000E+000   0.00000E+000
   0.00000E+000   0.00000E+000   0.00000E+000   0.00000E+000   0.00000E+000   0.00000E+000   0.00000E+000   0.00000E+000   0.00000E+000
   0.00000E+000   0.00000E+000   0.00000E+000   0.00000E+000   0.00000E+000   0.00000E+000   0.00000E+000   0.00000E+000   0.00000E+000
   0.00000E+000   0.00000E+000   0.00000E+000   0.00000E+000   0.00000E+000   0.00000E+000   0.00000E+000   0.00000E+000   0.00000E+000
   0.00000E+000   0.00000E+000   0.00000E+000   0.00000E+000   0.00000E+000   0.00000E+000   0.00000E+000   0.00000E+000   0.00000E+000
   0.00000E+000   0.00000E+000   0.00000E+000   0.00000E+000   0.00000E+000   0.00000E+000   0.00000E+000   0.00000E+000   0.00000E+000
   0.00000E+000   0.00000E+000   0.00000E+000   0.00000E+000   0.00000E+000   0.00000E+000   0.00000E+000   0.00000E+000   0.00000E+000
   0.00000E+000   0.00000E+000   0.00000E+000   0.00000E+000   0.00000E+000   0.00000E+000   0.00000E+000   0.00000E+000   0.00000E+000
   0.00000E+000   0.00000E+000   0.00000E+000   0.00000E+000   0.00000E+000   0.00000E+000   0.00000E+000   0.00000E+000   0.00000E+000
   0.00000E+000   0.00000E+000   0.00000E+000   0.00000E+000   0.00000E+000   0.00000E+000   0.00000E+000   0.00000E+000   0.00000E+000
   0.00000E+000   0.00000E+000   0.00000E+000   0.00000E+000   0.00000E+000   0.00000E+000   0.00000E+000   0.00000E+000   0.00000E+000
   0.00000E+000   0.00000E+000   0.00000E+000   0.00000E+000   0.00000E+000   0.00000E+000   0.00000E+000   0.00000E+000   0.00000E+000
   0.00000E+000   0.00000E+000   0.00000E+000   0.00000E+000   0.00000E+000   0.00000E+000   0.00000E+000   0.00000E+000   0.00000E+000
   0.00000E+000   0.00000E+000   0.00000E+000   0.00000E+000   0.00000E+000   0.00000E+000   0.00000E+000   0.00000E+000   0.00000E+000
   0.00000E+000   0.00000E+000   0.00000E+000   0.00000E+000   0.00000E+000   0.00000E+000   0.00000E+000   0.00000E+000   0.00000E+000
   0.00000E+000   0.00000E+000   0.00000E+000   0.00000E+000   0.00000E+000   0.00000E+000   0.00000E+000   0.00000E+000   0.00000E+000
   0.00000E+000   0.00000E+000   0.00000E+000   0.00000E+000   0.00000E+000   0.00000E+000   0.00000E+000   0.00000E+000   0.00000E+000
   0.00000E+000   0.00000E+000   0.00000E+000   0.00000E+000   0.00000E+000   0.00000E+000   0.00000E+000   0.00000E+000   0.00000E+000
   0.00000E+000   0.00000E+000   0.00000E+000   0.00000E+000   0.00000E+000   0.00000E+000   0.00000E+000   0.00000E+000   0.00000E+000
   0.00000E+000   0.00000E+000   0.00000E+000   0.00000E+000   0.00000E+000   0.00000E+000   0.00000E+000   0.00000E+000   0.00000E+000
   0.00000E+000   0.00000E+000   0.00000E+000   0.00000E+000   0.00000E+000   0.00000E+000   0.00000E+000   0.00000E+000   0.00000E+000
   0.00000E+000   0.00000E+000   0.00000E+000   0.00000E+000   0.00000E+000   0.00000E+000   0.00000E+000   0.00000E+000   0.00000E+000
   0.00000E+000   0.00000E+000   0.00000E+000   0.00000E+000   0.00000E+000   0.00000E+000   0.00000E+000   0.00000E+000   0.00000E+000
   0.00000E+000   0.00000E+000   0.00000E+000   0.00000E+000   0.00000E+000   0.00000E+000   0.00000E+000   0.00000E+000   0.00000E+000
   0.00000E+000   0.00000E+000   0.00000E+000   0.00000E+000   0.00000E+000   0.00000E+000   0.00000E+000   0.00000E+000   0.00000E+000
   0.00000E+000   0.00000E+000   0.00000E+000   0.00000E+000   0.00000E+000   0.00000E+000   0.00000E+000   0.00000E+000   0.00000E+000
   0.00000E+000   0.00000E+000   0.00000E+000   0.00000E+000   0.00000E+000   0.00000E+000   0.00000E+000   0.00000E+000   0.00000E+000
   0.00000E+000   0.00000E+000   0.00000E+000   0.00000E+000   0.00000E+000   0.00000E+000   0.00000E+000   0.00000E+000   0.00000E+000
   0.00000E+000   0.00000E+000   0.00000E+000   0.00000E+000   0.00000E+000   0.00000E+000   0.00000E+000   0.00000E+000   0.00000E+000
   0.00000E+000   0.00000E+000   0.00000E+000   0.00000E+000   0.00000E+000   0.00000E+000   0.00000E+000   0.00000E+000   0.00000E+000
   0.00000E+000   0.00000E+000   0.00000E+000   0.00000E+000   0.00000E+000   0.00000E+000   0.00000E+000   0.00000E+000   0.00000E+000
   0.00000E+000   0.00000E+000   0.00000E+000   0.00000E+000   0.00000E+000   0.00000E+000   0.00000E+000   0.00000E+000   0.00000E+000
   0.00000E+000   0.00000E+000   0.00000E+000   0.00000E+000   0.00000E+000   0.00000E+000   0.00000E+000   0.00000E+000   0.00000E+000
   0.00000E+000   0.00000E+000   0.00000E+000   0.00000E+000   0.00000E+000   0.00000E+000   0.00000E+000   0.00000E+000   0.00000E+000
   0.00000E+000   0.00000E+000   0.00000E+000   0.00000E+000   0.00000E+000   0.00000E+000   0.00000E+000   0.00000E+000   0.00000E+000
   0.00000E+000   0.00000E+000   0.00000E+000   0.00000E+000   0.00000E+000   0.00000E+000   0.00000E+000   0.00000E+000   0.00000E+000
   0.00000E+000   0.00000E+000   0.00000E+000   0.00000E+000   0.00000E+000   0.00000E+000   0.00000E+000   0.00000E+000   0.00000E+000
   0.00000E+000   0.00000E+000   0.00000E+000   0.00000E+000   0.00000E+000   0.00000E+000   0.00000E+000   0.00000E+000   0.00000E+000
   0.00000E+000   0.00000E+000   0.00000E+000   0.00000E+000   0.00000E+000   0.00000E+000   0.00000E+000   0.00000E+000   0.00000E+000
   0.00000E+000   0.00000E+000   0.00000E+000   0.00000E+000   0.00000E+000   0.00000E+000   0.00000E+000   0.00000E+000   0.00000E+000
   0.00000E+000   0.00000E+000   0.00000E+000   0.00000E+000   0.00000E+000   0.00000E+000   0.00000E+000   0.00000E+000   0.00000E+000
   0.00000E+000   0.00000E+000   0.00000E+000   0.00000E+000   0.00000E+000   0.00000E+000   0.00000E+000   0.00000E+000   0.00000E+000
   0.00000E+000   0.00000E+000   0.00000E+000   0.00000E+000   0.00000E+000   0.00000E+000   0.00000E+000   0.00000E+000   0.00000E+000
   0.00000E+000   0.00000E+000   0.00000E+000   0.00000E+000   0.00000E+000   0.00000E+000   0.00000E+000   0.00000E+000   0.00000E+000
   0.00000E+000   0.00000E+000   0.00000E+000   0.00000E+000   0.00000E+000   0.00000E+000   0.00000E+000   0.00000E+000   0.00000E+000
   0.00000E+000   0.00000E+000   0.00000E+000   0.00000E+000   0.00000E+000   0.00000E+000   0.00000E+000   0.00000E+000   0.00000E+000
   0.00000E+000   0.00000E+000   0.00000E+000   0.00000E+000   0.00000E+000   0.00000E+000   0.00000E+000   0.00000E+000   0.00000E+000
   0.00000E+000   0.00000E+000   0.00000E+000   0.00000E+000   0.00000E+000   0.00000E+000   0.00000E+000   0.00000E+000   0.00000E+000
   0.00000E+000   0.00000E+000   0.00000E+000   0.00000E+000   0.00000E+000   0.00000E+000   0.00000E+000   0.00000E+000   0.00000E+000
   0.00000E+000   0.00000E+000   0.00000E+000   0.00000E+000   0.00000E+000   0.00000E+000   0.00000E+000   0.00000E+000   0.00000E+000
   0.00000E+000   0.00000E+000   0.00000E+000   0.00000E+000   0.00000E+000   0.00000E+000   0.00000E+000   0.00000E+000   0.00000E+000
   0.00000E+000   0.00000E+000   0.00000E+000   0.00000E+000   0.00000E+000   0.00000E+000   0.00000E+000   0.00000E+000   0.00000E+000
   0.00000E+000   0.00000E+000   0.00000E+000   0.00000E+000   0.00000E+000   0.00000E+000   0.00000E+000   0.00000E+000   0.00000E+000
   0.00000E+000   0.00000E+000   0.00000E+000   0.00000E+000   0.00000E+000   0.00000E+000   0.00000E+000   0.00000E+000   0.00000E+000
   0.00000E+000   0.00000E+000   0.00000E+000   0.00000E+000   0.00000E+000   0.00000E+000   0.00000E+000   0.00000E+000   0.00000E+000
   0.00000E+000   0.00000E+000   0.00000E+000   0.00000E+000   0.00000E+000   0.00000E+000   0.00000E+000   0.00000E+000   0.00000E+000
   0.00000E+000   0.00000E+000   0.00000E+000   0.00000E+000   0.00000E+000   0.00000E+000   0.00000E+000   0.00000E+000   0.00000E+000
   0.00000E+000   0.00000E+000   0.00000E+000   0.00000E+000   0.00000E+000   0.00000E+000   0.00000E+000   0.00000E+000   0.00000E+000
   0.00000E+000   0.00000E+000   0.00000E+000   0.00000E+000   0.00000E+000   0.00000E+000   0.00000E+000   0.00000E+000   0.00000E+000
   0.00000E+000   0.00000E+000   0.00000E+000   0.00000E+000   0.00000E+000   0.00000E+000   0.00000E+000   0.00000E+000   0.00000E+000
   0.00000E+000   0.00000E+000   0.00000E+000   0.00000E+000   0.00000E+000   0.00000E+000   0.00000E+000   0.00000E+000   0.00000E+000
   0.00000E+000   0.00000E+000   0.00000E+000   0.00000E+000   0.00000E+000   0.00000E+000   0.00000E+000   0.00000E+000   0.00000E+000
   0.00000E+000   0.00000E+000   0.00000E+000   0.00000E+000   0.00000E+000   0.00000E+000   0.00000E+000   0.00000E+000   0.00000E+000
   0.00000E+000   0.00000E+000   0.00000E+000   0.00000E+000   0.00000E+000   0.00000E+000   0.00000E+000   0.00000E+000   0.00000E+000
   0.00000E+000   0.00000E+000   0.00000E+000   0.00000E+000   0.00000E+000   0.00000E+000   0.00000E+000   0.00000E+000   0.00000E+000
   0.00000E+000   0.00000E+000   0.00000E+000   0.00000E+000   0.00000E+000   0.00000E+000   0.00000E+000   0.00000E+000   0.00000E+000
   0.00000E+000   0.00000E+000   0.00000E+000   0.00000E+000   0.00000E+000   0.00000E+000   0.00000E+000   0.00000E+000   0.00000E+000
   0.00000E+000   0.00000E+000   0.00000E+000   0.00000E+000   0.00000E+000   0.00000E+000   0.00000E+000   0.00000E+000   0.00000E+000
   0.00000E+000   0.00000E+000   0.00000E+000   0.00000E+000   0.00000E+000   0.00000E+000   0.00000E+000   0.00000E+000   0.00000E+000
   0.00000E+000   0.00000E+000   0.00000E+000   0.00000E+000   0.00000E+000   0.00000E+000   0.00000E+000   0.00000E+000   0.00000E+000
   0.00000E+000   0.00000E+000   0.00000E+000   0.00000E+000   0.00000E+000   0.00000E+000   0.00000E+000   0.00000E+000   0.00000E+000
   0.00000E+000   0.00000E+000   0.00000E+000   0.00000E+000   0.00000E+000   0.00000E+000   0.00000E+000   0.00000E+000   0.00000E+000
   0.00000E+000   0.00000E+000   0.00000E+000   0.00000E+000   0.00000E+000   0.00000E+000   0.00000E+000   0.00000E+000   0.00000E+000
   0.00000E+000   0.00000E+000   0.00000E+000   0.00000E+000   0.00000E+000   0.00000E+000   0.00000E+000   0.00000E+000   0.00000E+000
   0.00000E+000   0.00000E+000   0.00000E+000   0.00000E+000   0.00000E+000   0.00000E+000   0.00000E+000   0.00000E+000   0.00000E+000
   0.00000E+000   0.00000E+000   0.00000E+000   0.00000E+000   0.00000E+000   0.00000E+000   0.00000E+000   0.00000E+000   0.00000E+000
   0.00000E+000   0.00000E+000   0.00000E+000   0.00000E+000   0.00000E+000   0.00000E+000   0.00000E+000   0.00000E+000   0.00000E+000
   0.00000E+000   0.00000E+000   0.00000E+000   0.00000E+000   0.00000E+000   0.00000E+000   0.00000E+000   0.00000E+000   0.00000E+000
   0.00000E+000   0.00000E+000   0.00000E+000   0.00000E+000   0.00000E+000   0.00000E+000   0.00000E+000   0.00000E+000   0.00000E+000
   0.00000E+000   0.00000E+000   0.00000E+000   0.00000E+000   0.00000E+000   0.00000E+000   0.00000E+000   0.00000E+000   0.00000E+000
   0.00000E+000   0.00000E+000   0.00000E+000   0.00000E+000   0.00000E+000   0.00000E+000   0.00000E+000   0.00000E+000   0.00000E+000
   0.00000E+000   0.00000E+000   0.00000E+000   0.00000E+000   0.00000E+000   0.00000E+000   0.00000E+000   0.00000E+000   0.00000E+000
   0.00000E+000   0.00000E+000   0.00000E+000   0.00000E+000   0.00000E+000   0.00000E+000   0.00000E+000   0.00000E+000   0.00000E+000
   0.00000E+000   0.00000E+000   0.00000E+000   0.00000E+000   0.00000E+000   0.00000E+000   0.00000E+000   0.00000E+000   0.00000E+000
   0.00000E+000   0.00000E+000   0.00000E+000   0.00000E+000   0.00000E+000   0.00000E+000   0.00000E+000   0.00000E+000   0.00000E+000
   0.00000E+000   0.00000E+000   0.00000E+000   0.00000E+000   0.00000E+000   0.00000E+000   0.00000E+000   0.00000E+000   0.00000E+000
   0.00000E+000   0.00000E+000   0.00000E+000   0.00000E+000   0.00000E+000   0.00000E+000   0.00000E+000   0.00000E+000   0.00000E+000
   0.00000E+000   0.00000E+000   0.00000E+000   0.00000E+000   0.00000E+000   0.00000E+000   0.00000E+000   0.00000E+000   0.00000E+000
   0.00000E+000   0.00000E+000   0.00000E+000   0.00000E+000   0.00000E+000   0.00000E+000   0.00000E+000   0.00000E+000   0.00000E+000
   0.00000E+000   0.00000E+000   0.00000E+000   0.00000E+000   0.00000E+000   0.00000E+000   0.00000E+000   0.00000E+000   0.00000E+000
   0.00000E+000   0.00000E+000   0.00000E+000   0.00000E+000   0.00000E+000   0.00000E+000   0.00000E+000   0.00000E+000   0.00000E+000
   0.00000E+000   0.00000E+000   0.00000E+000   0.00000E+000   0.00000E+000   0.00000E+000   0.00000E+000   0.00000E+000   0.00000E+000
   0.00000E+000   0.00000E+000   0.00000E+000   0.00000E+000   0.00000E+000   0.00000E+000   0.00000E+000   0.00000E+000   0.00000E+000
   0.00000E+000   0.00000E+000   0.00000E+000   0.00000E+000   0.00000E+000   0.00000E+000   0.00000E+000   0.00000E+000   0.00000E+000
   0.00000E+000   0.00000E+000   0.00000E+000   0.00000E+000   0.00000E+000   0.00000E+000   0.00000E+000   0.00000E+000   0.00000E+000
   0.00000E+000   0.00000E+000   0.00000E+000   0.00000E+000   0.00000E+000   0.00000E+000   0.00000E+000   0.00000E+000   0.00000E+000
   0.00000E+000   0.00000E+000   0.00000E+000   0.00000E+000   0.00000E+000   0.00000E+000   0.00000E+000   0.00000E+000   0.00000E+000
   0.00000E+000   0.00000E+000   0.00000E+000   0.00000E+000   0.00000E+000   0.00000E+000   0.00000E+000   0.00000E+000   0.00000E+000
   0.00000E+000   0.00000E+000   0.00000E+000   0.00000E+000   0.00000E+000   0.00000E+000   0.00000E+000   0.00000E+000   0.00000E+000
   0.00000E+000   0.00000E+000   0.00000E+000   0.00000E+000   0.00000E+000   0.00000E+000   0.00000E+000   0.00000E+000   0.00000E+000
   0.00000E+000   0.00000E+000   0.00000E+000   0.00000E+000   0.00000E+000   0.00000E+000   0.00000E+000   0.00000E+000   0.00000E+000
   0.00000E+000   0.00000E+000   0.00000E+000   0.00000E+000   0.00000E+000   0.00000E+000   0.00000E+000   0.00000E+000   0.00000E+000
   0.00000E+000   0.00000E+000   0.00000E+000   0.00000E+000   0.00000E+000   0.00000E+000   0.00000E+000   0.00000E+000   0.00000E+000
   0.00000E+000   0.00000E+000   0.00000E+000   0.00000E+000   0.00000E+000   0.00000E+000   0.00000E+000   0.00000E+000   0.00000E+000
   0.00000E+000   0.00000E+000   0.00000E+000   0.00000E+000   0.00000E+000   0.00000E+000   0.00000E+000   0.00000E+000   0.00000E+000
   0.00000E+000   0.00000E+000   0.00000E+000   0.00000E+000   0.00000E+000   0.00000E+000   0.00000E+000   0.00000E+000   0.00000E+000
   0.00000E+000   0.00000E+000   0.00000E+000   0.00000E+000   0.00000E+000   0.00000E+000   0.00000E+000   0.00000E+000   0.00000E+000
   0.00000E+000   0.00000E+000   0.00000E+000   0.00000E+000   0.00000E+000   0.00000E+000   0.00000E+000   0.00000E+000   0.00000E+000
   0.00000E+000   0.00000E+000   0.00000E+000   0.00000E+000   0.00000E+000   0.00000E+000   0.00000E+000   0.00000E+000   0.00000E+000
   0.00000E+000   0.00000E+000   0.00000E+000   0.00000E+000   0.00000E+000   0.00000E+000   0.00000E+000   0.00000E+000   0.00000E+000
   0.00000E+000   0.00000E+000   0.00000E+000   0.00000E+000   0.00000E+000   0.00000E+000   0.00000E+000   0.00000E+000   0.00000E+000
   0.00000E+000   0.00000E+000   0.00000E+000   0.00000E+000   0.00000E+000   0.00000E+000   0.00000E+000   0.00000E+000   0.00000E+000
   0.00000E+000   0.00000E+000   0.00000E+000   0.00000E+000   0.00000E+000   0.00000E+000   0.00000E+000   0.00000E+000   0.00000E+000
   0.00000E+000   0.00000E+000   0.00000E+000   0.00000E+000   0.00000E+000   0.00000E+000   0.00000E+000   0.00000E+000   0.00000E+000
   0.00000E+000   0.00000E+000   0.00000E+000   0.00000E+000   0.00000E+000   0.00000E+000   0.00000E+000   0.00000E+000   0.00000E+000
   0.00000E+000   0.00000E+000   0.00000E+000   0.00000E+000   0.00000E+000   0.00000E+000   0.00000E+000   0.00000E+000   0.00000E+000
   0.00000E+000   0.00000E+000   0.00000E+000   0.00000E+000   0.00000E+000   0.00000E+000   0.00000E+000   0.00000E+000   0.00000E+000
   0.00000E+000   0.00000E+000   0.00000E+000   0.00000E+000   0.00000E+000   0.00000E+000   0.00000E+000   0.00000E+000   0.00000E+000
   0.00000E+000   0.00000E+000   0.00000E+000   0.00000E+000   0.00000E+000   0.00000E+000   0.00000E+000   0.00000E+000   0.00000E+000
   0.00000E+000   0.00000E+000   0.00000E+000   0.00000E+000   0.00000E+000   0.00000E+000   0.00000E+000   0.00000E+000   0.00000E+000
   0.00000E+000   0.00000E+000   0.00000E+000   0.00000E+000   0.00000E+000   0.00000E+000   0.00000E+000   0.00000E+000   0.00000E+000
   0.00000E+000   0.00000E+000   0.00000E+000   0.00000E+000   0.00000E+000   0.00000E+000   0.00000E+000   0.00000E+000   0.00000E+000
   0.00000E+000   0.00000E+000   0.00000E+000   0.00000E+000   0.00000E+000   0.00000E+000   0.00000E+000   0.00000E+000   0.00000E+000
   0.00000E+000   0.00000E+000   0.00000E+000   0.00000E+000   0.00000E+000   0.00000E+000   0.00000E+000   0.00000E+000   0.00000E+000
   0.00000E+000   0.00000E+000   0.00000E+000   0.00000E+000   0.00000E+000   0.00000E+000   0.00000E+000   0.00000E+000   0.00000E+000
   0.00000E+000   0.00000E+000   0.00000E+000   0.00000E+000   0.00000E+000   0.00000E+000   0.00000E+000   0.00000E+000   0.00000E+000
   0.00000E+000   0.00000E+000   0.00000E+000   0.00000E+000   0.00000E+000   0.00000E+000   0.00000E+000   0.00000E+000   0.00000E+000
   0.00000E+000   0.00000E+000   0.00000E+000   0.00000E+000   0.00000E+000   0.00000E+000   0.00000E+000   0.00000E+000   0.00000E+000
   0.00000E+000   0.00000E+000   0.00000E+000   0.00000E+000   0.00000E+000   0.00000E+000   0.00000E+000   0.00000E+000   0.00000E+000
   0.00000E+000   0.00000E+000   0.00000E+000   0.00000E+000   0.00000E+000   0.00000E+000   0.00000E+000   0.00000E+000   0.00000E+000
   0.00000E+000   0.00000E+000   0.00000E+000   0.00000E+000   0.00000E+000   0.00000E+000   0.00000E+000   0.00000E+000   0.00000E+000
   0.00000E+000   0.00000E+000   0.00000E+000   0.00000E+000   0.00000E+000   0.00000E+000   0.00000E+000   0.00000E+000   0.00000E+000
   0.00000E+000   0.00000E+000   0.00000E+000   0.00000E+000   0.00000E+000   0.00000E+000   0.00000E+000   0.00000E+000   0.00000E+000
   0.00000E+000   0.00000E+000   0.00000E+000   0.00000E+000   0.00000E+000   0.00000E+000   0.00000E+000   0.00000E+000   0.00000E+000
   0.00000E+000   0.00000E+000   0.00000E+000   0.00000E+000   0.00000E+000   0.00000E+000   0.00000E+000   0.00000E+000   0.00000E+000
   0.00000E+000   0.00000E+000   0.00000E+000   0.00000E+000   0.00000E+000   0.00000E+000   0.00000E+000   0.00000E+000   0.00000E+000
   0.00000E+000   0.00000E+000   0.00000E+000   0.00000E+000   0.00000E+000   0.00000E+000   0.00000E+000   0.00000E+000   0.00000E+000
   0.00000E+000   0.00000E+000   0.00000E+000   0.00000E+000   0.00000E+000   0.00000E+000   0.00000E+000   0.00000E+000   0.00000E+000
   0.00000E+000   0.00000E+000   0.00000E+000   0.00000E+000   0.00000E+000   0.00000E+000   0.00000E+000   0.00000E+000   0.00000E+000
   0.00000E+000   0.00000E+000   0.00000E+000   0.00000E+000   0.00000E+000   0.00000E+000   0.00000E+000   0.00000E+000   0.00000E+000
   0.00000E+000   0.00000E+000   0.00000E+000   0.00000E+000   0.00000E+000   0.00000E+000   0.00000E+000   0.00000E+000   0.00000E+000
   0.00000E+000   0.00000E+000   0.00000E+000   0.00000E+000   0.00000E+000   0.00000E+000   0.00000E+000   0.00000E+000   0.00000E+000
   0.00000E+000   0.00000E+000   0.00000E+000   0.00000E+000   0.00000E+000   0.00000E+000   0.00000E+000   0.00000E+000   0.00000E+000
   0.00000E+000   0.00000E+000   0.00000E+000   0.00000E+000   0.00000E+000   0.00000E+000   0.00000E+000   0.00000E+000   0.00000E+000
   0.00000E+000   0.00000E+000   0.00000E+000   0.00000E+000   0.00000E+000   0.00000E+000   0.00000E+000   0.00000E+000   0.00000E+000
   0.00000E+000   0.00000E+000   0.00000E+000   0.00000E+000   0.00000E+000   0.00000E+000   0.00000E+000   0.00000E+000   0.00000E+000
   0.00000E+000   0.00000E+000   0.00000E+000   0.00000E+000   0.00000E+000   0.00000E+000   0.00000E+000   0.00000E+000   0.00000E+000
   0.00000E+000   0.00000E+000   0.00000E+000   0.00000E+000   0.00000E+000   0.00000E+000   0.00000E+000   0.00000E+000   0.00000E+000
   0.00000E+000   0.00000E+000   0.00000E+000   0.00000E+000   0.00000E+000   0.00000E+000   0.00000E+000   0.00000E+000   0.00000E+000
   0.00000E+000   0.00000E+000   0.00000E+000   0.00000E+000   0.00000E+000   0.00000E+000   0.00000E+000   0.00000E+000   0.00000E+000
   0.00000E+000   0.00000E+000   0.00000E+000   0.00000E+000   0.00000E+000   0.00000E+000   0.00000E+000   0.00000E+000   0.00000E+000
   0.00000E+000   0.00000E+000   0.00000E+000   0.00000E+000   0.00000E+000   0.00000E+000   0.00000E+000   0.00000E+000   0.00000E+000
   0.00000E+000   0.00000E+000   0.00000E+000   0.00000E+000   0.00000E+000   0.00000E+000   0.00000E+000   0.00000E+000   0.00000E+000
   0.00000E+000   0.00000E+000   0.00000E+000   0.00000E+000   0.00000E+000   0.00000E+000   0.00000E+000   0.00000E+000   0.00000E+000
   0.00000E+000   0.00000E+000   0.00000E+000   0.00000E+000   0.00000E+000   0.00000E+000   0.00000E+000   0.00000E+000   0.00000E+000
   0.00000E+000   0.00000E+000   0.00000E+000   0.00000E+000   0.00000E+000   0.00000E+000   0.00000E+000   0.00000E+000   0.00000E+000
   0.00000E+000   0.00000E+000   0.00000E+000   0.00000E+000   0.00000E+000   0.00000E+000   0.00000E+000   0.00000E+000   0.00000E+000
   0.00000E+000   0.00000E+000   0.00000E+000   0.00000E+000   0.00000E+000   0.00000E+000   0.00000E+000   0.00000E+000   0.00000E+000
   0.00000E+000   0.00000E+000   0.00000E+000   0.00000E+000   0.00000E+000   0.00000E+000   0.00000E+000   0.00000E+000   0.00000E+000
   0.00000E+000   0.00000E+000   0.00000E+000   0.00000E+000   0.00000E+000   0.00000E+000   0.00000E+000   0.00000E+000   0.00000E+000
   0.00000E+000   0.00000E+000   0.00000E+000   0.00000E+000   0.00000E+000   0.00000E+000   0.00000E+000   0.00000E+000   0.00000E+000
   0.00000E+000   0.00000E+000   0.00000E+000   0.00000E+000   0.00000E+000   0.00000E+000   0.00000E+000   0.00000E+000   0.00000E+000
   0.00000E+000   0.00000E+000   0.00000E+000   0.00000E+000   0.00000E+000   0.00000E+000   0.00000E+000   0.00000E+000   0.00000E+000
   0.00000E+000   0.00000E+000   0.00000E+000   0.00000E+000   0.00000E+000   0.00000E+000   0.00000E+000   0.00000E+000   0.00000E+000
   0.00000E+000   0.00000E+000   0.00000E+000   0.00000E+000   0.00000E+000   0.00000E+000   0.00000E+000   0.00000E+000   0.00000E+000
   0.00000E+000   0.00000E+000   0.00000E+000   0.00000E+000   0.00000E+000   0.00000E+000   0.00000E+000   0.00000E+000   0.00000E+000
   0.00000E+000   0.00000E+000   0.00000E+000   0.00000E+000   0.00000E+000   0.00000E+000   0.00000E+000   0.00000E+000   0.00000E+000
   0.00000E+000   0.00000E+000   0.00000E+000   0.00000E+000   0.00000E+000   0.00000E+000   0.00000E+000   0.00000E+000   0.00000E+000
   0.00000E+000   0.00000E+000   0.00000E+000   0.00000E+000   0.00000E+000   0.00000E+000   0.00000E+000   0.00000E+000   0.00000E+000
   0.00000E+000   0.00000E+000   0.00000E+000   0.00000E+000   0.00000E+000   0.00000E+000   0.00000E+000   0.00000E+000   0.00000E+000
   0.00000E+000   0.00000E+000   0.00000E+000   0.00000E+000   0.00000E+000   0.00000E+000   0.00000E+000   0.00000E+000   0.00000E+000
   0.00000E+000   0.00000E+000   0.00000E+000   0.00000E+000   0.00000E+000   0.00000E+000   0.00000E+000   0.00000E+000   0.00000E+000
   0.00000E+000   0.00000E+000   0.00000E+000   0.00000E+000   0.00000E+000   0.00000E+000   0.00000E+000   0.00000E+000   0.00000E+000
   0.00000E+000   0.00000E+000   0.00000E+000   0.00000E+000   0.00000E+000   0.00000E+000   0.00000E+000   0.00000E+000   0.00000E+000
   0.00000E+000   0.00000E+000   0.00000E+000   0.00000E+000   0.00000E+000   0.00000E+000   0.00000E+000   0.00000E+000   0.00000E+000
   0.00000E+000   0.00000E+000   0.00000E+000   0.00000E+000   0.00000E+000   0.00000E+000   0.00000E+000   0.00000E+000   0.00000E+000
   0.00000E+000   0.00000E+000   0.00000E+000   0.00000E+000   0.00000E+000   0.00000E+000   0.00000E+000   0.00000E+000   0.00000E+000
   0.00000E+000   0.00000E+000   0.00000E+000   0.00000E+000   0.00000E+000   0.00000E+000   0.00000E+000   0.00000E+000   0.00000E+000
   0.00000E+000   0.00000E+000   0.00000E+000   0.00000E+000   0.00000E+000   0.00000E+000   0.00000E+000   0.00000E+000   0.00000E+000
   0.00000E+000   0.00000E+000   0.00000E+000   0.00000E+000   0.00000E+000   0.00000E+000   0.00000E+000   0.00000E+000   0.00000E+000
   0.00000E+000   0.00000E+000   0.00000E+000   0.00000E+000   0.00000E+000   0.00000E+000   0.00000E+000   0.00000E+000   0.00000E+000
   0.00000E+000   0.00000E+000   0.00000E+000   0.00000E+000   0.00000E+000   0.00000E+000   0.00000E+000   0.00000E+000   0.00000E+000
   0.00000E+000   0.00000E+000   0.00000E+000   0.00000E+000   0.00000E+000   0.00000E+000   0.00000E+000   0.00000E+000   0.00000E+000
   0.00000E+000   0.00000E+000   0.00000E+000   0.00000E+000   0.00000E+000   0.00000E+000   0.00000E+000   0.00000E+000   0.00000E+000
   0.00000E+000   0.00000E+000   0.00000E+000   0.00000E+000   0.00000E+000   0.00000E+000   0.00000E+000   0.00000E+000   0.00000E+000
   0.00000E+000   0.00000E+000   0.00000E+000   0.00000E+000   0.00000E+000   0.00000E+000   0.00000E+000   0.00000E+000   0.00000E+000
   0.00000E+000   0.00000E+000   0.00000E+000   0.00000E+000   0.00000E+000   0.00000E+000   0.00000E+000   0.00000E+000   0.00000E+000
   0.00000E+000   0.00000E+000   0.00000E+000   0.00000E+000   0.00000E+000   0.00000E+000   0.00000E+000   0.00000E+000   0.00000E+000
   0.00000E+000   0.00000E+000   0.00000E+000   0.00000E+000   0.00000E+000   0.00000E+000   0.00000E+000   0.00000E+000   0.00000E+000
   0.00000E+000   0.00000E+000   0.00000E+000   0.00000E+000   0.00000E+000   0.00000E+000   0.00000E+000   0.00000E+000   0.00000E+000
   0.00000E+000   0.00000E+000   0.00000E+000   0.00000E+000   0.00000E+000   0.00000E+000   0.00000E+000   0.00000E+000   0.00000E+000
   0.00000E+000   0.00000E+000   0.00000E+000   0.00000E+000   0.00000E+000   0.00000E+000   0.00000E+000   0.00000E+000   0.00000E+000
   0.00000E+000   0.00000E+000   0.00000E+000   0.00000E+000   0.00000E+000   0.00000E+000   0.00000E+000   0.00000E+000   0.00000E+000
   0.00000E+000   0.00000E+000   0.00000E+000   0.00000E+000   0.00000E+000   0.00000E+000   0.00000E+000   0.00000E+000   0.00000E+000
   0.00000E+000   0.00000E+000   0.00000E+000   0.00000E+000   0.00000E+000   0.00000E+000   0.00000E+000   0.00000E+000   0.00000E+000
   0.00000E+000   0.00000E+000   0.00000E+000   0.00000E+000   0.00000E+000   0.00000E+000   0.00000E+000   0.00000E+000   0.00000E+000
   0.00000E+000   0.00000E+000   0.00000E+000   0.00000E+000   0.00000E+000   0.00000E+000   0.00000E+000   0.00000E+000   0.00000E+000
   0.00000E+000   0.00000E+000   0.00000E+000   0.00000E+000   0.00000E+000   0.00000E+000   0.00000E+000   0.00000E+000   0.00000E+000
   0.00000E+000   0.00000E+000   0.00000E+000   0.00000E+000   0.00000E+000   0.00000E+000   0.00000E+000   0.00000E+000   0.00000E+000
   0.00000E+000   0.00000E+000   0.00000E+000   0.00000E+000   0.00000E+000   0.00000E+000   0.00000E+000   0.00000E+000   0.00000E+000
   0.00000E+000   0.00000E+000   0.00000E+000   0.00000E+000   0.00000E+000   0.00000E+000   0.00000E+000   0.00000E+000   0.00000E+000
   0.00000E+000   0.00000E+000   0.00000E+000   0.00000E+000   0.00000E+000   0.00000E+000   0.00000E+000   0.00000E+000   0.00000E+000
   0.00000E+000   0.00000E+000   0.00000E+000   0.00000E+000   0.00000E+000   0.00000E+000   0.00000E+000   0.00000E+000   0.00000E+000
   0.00000E+000   0.00000E+000   0.00000E+000   0.00000E+000   0.00000E+000   0.00000E+000   0.00000E+000   0.00000E+000   0.00000E+000
   0.00000E+000   0.00000E+000   0.00000E+000   0.00000E+000   0.00000E+000   0.00000E+000   0.00000E+000   0.00000E+000   0.00000E+000
   0.00000E+000   0.00000E+000   0.00000E+000   0.00000E+000   0.00000E+000   0.00000E+000   0.00000E+000   0.00000E+000   0.00000E+000
   0.00000E+000   0.00000E+000   0.00000E+000   0.00000E+000   0.00000E+000   0.00000E+000   0.00000E+000   0.00000E+000   0.00000E+000
   0.00000E+000   0.00000E+000   0.00000E+000   0.00000E+000   0.00000E+000   0.00000E+000   0.00000E+000   0.00000E+000   0.00000E+000
   0.00000E+000   0.00000E+000   0.00000E+000   0.00000E+000   0.00000E+000   0.00000E+000   0.00000E+000   0.00000E+000   0.00000E+000
   0.00000E+000   0.00000E+000   0.00000E+000   0.00000E+000   0.00000E+000   0.00000E+000   0.00000E+000   0.00000E+000   0.00000E+000
   0.00000E+000   0.00000E+000   0.00000E+000   0.00000E+000   0.00000E+000   0.00000E+000   0.00000E+000   0.00000E+000   0.00000E+000
   0.00000E+000   0.00000E+000   0.00000E+000   0.00000E+000   0.00000E+000   0.00000E+000   0.00000E+000   0.00000E+000   0.00000E+000
   0.00000E+000   0.00000E+000   0.00000E+000   0.00000E+000   0.00000E+000   0.00000E+000   0.00000E+000   0.00000E+000   0.00000E+000
   0.00000E+000   0.00000E+000   0.00000E+000   0.00000E+000   0.00000E+000   0.00000E+000   0.00000E+000   0.00000E+000   0.00000E+000
   0.00000E+000   0.00000E+000   0.00000E+000   0.00000E+000   0.00000E+000   0.00000E+000   0.00000E+000   0.00000E+000   0.00000E+000
   0.00000E+000   0.00000E+000   0.00000E+000   0.00000E+000   0.00000E+000   0.00000E+000   0.00000E+000   0.00000E+000   0.00000E+000
   0.00000E+000   0.00000E+000   0.00000E+000   0.00000E+000   0.00000E+000   0.00000E+000   0.00000E+000   0.00000E+000   0.00000E+000
   0.00000E+000   0.00000E+000   0.00000E+000   0.00000E+000   0.00000E+000   0.00000E+000   0.00000E+000   0.00000E+000   0.00000E+000
   0.00000E+000   0.00000E+000   0.00000E+000   0.00000E+000   0.00000E+000   0.00000E+000   0.00000E+000   0.00000E+000   0.00000E+000
   0.00000E+000   0.00000E+000   0.00000E+000   0.00000E+000   0.00000E+000   0.00000E+000   0.00000E+000   0.00000E+000   0.00000E+000
   0.00000E+000   0.00000E+000   0.00000E+000   0.00000E+000   0.00000E+000   0.00000E+000   0.00000E+000   0.00000E+000   0.00000E+000
   0.00000E+000   0.00000E+000   0.00000E+000   0.00000E+000   0.00000E+000   0.00000E+000   0.00000E+000   0.00000E+000   0.00000E+000
   0.00000E+000   0.00000E+000   0.00000E+000   0.00000E+000   0.00000E+000   0.00000E+000   0.00000E+000   0.00000E+000   0.00000E+000
   0.00000E+000   0.00000E+000   0.00000E+000   0.00000E+000   0.00000E+000   0.00000E+000   0.00000E+000   0.00000E+000   0.00000E+000
   0.00000E+000   0.00000E+000   0.00000E+000   0.00000E+000   0.00000E+000   0.00000E+000   0.00000E+000   0.00000E+000   0.00000E+000
   0.00000E+000   0.00000E+000   0.00000E+000   0.00000E+000   0.00000E+000   0.00000E+000   0.00000E+000   0.00000E+000   0.00000E+000
   0.00000E+000   0.00000E+000   0.00000E+000   0.00000E+000   0.00000E+000   0.00000E+000   0.00000E+000   0.00000E+000   0.00000E+000
   0.00000E+000   0.00000E+000   0.00000E+000   0.00000E+000   0.00000E+000   0.00000E+000   0.00000E+000   0.00000E+000   0.00000E+000
   0.00000E+000   0.00000E+000   0.00000E+000   0.00000E+000   0.00000E+000   0.00000E+000   0.00000E+000   0.00000E+000   0.00000E+000
   0.00000E+000   0.00000E+000   0.00000E+000   0.00000E+000   0.00000E+000   0.00000E+000   0.00000E+000   0.00000E+000   0.00000E+000
   0.00000E+000   0.00000E+000   0.00000E+000   0.00000E+000   0.00000E+000   0.00000E+000   0.00000E+000   0.00000E+000   0.00000E+000
   0.00000E+000   0.00000E+000   0.00000E+000   0.00000E+000   0.00000E+000   0.00000E+000   0.00000E+000   0.00000E+000   0.00000E+000
   0.00000E+000   0.00000E+000   0.00000E+000   0.00000E+000   0.00000E+000   0.00000E+000   0.00000E+000   0.00000E+000   0.00000E+000
   0.00000E+000   0.00000E+000   0.00000E+000   0.00000E+000   0.00000E+000   0.00000E+000   0.00000E+000   0.00000E+000   0.00000E+000
   0.00000E+000   0.00000E+000   0.00000E+000   0.00000E+000   0.00000E+000   0.00000E+000   0.00000E+000   0.00000E+000   0.00000E+000
   0.00000E+000   0.00000E+000   0.00000E+000   0.00000E+000   0.00000E+000   0.00000E+000   0.00000E+000   0.00000E+000   0.00000E+000
   0.00000E+000   0.00000E+000   0.00000E+000   0.00000E+000   0.00000E+000   0.00000E+000   0.00000E+000   0.00000E+000   0.00000E+000
   0.00000E+000   0.00000E+000   0.00000E+000   0.00000E+000   0.00000E+000   0.00000E+000   0.00000E+000   0.00000E+000   0.00000E+000
   0.00000E+000   0.00000E+000   0.00000E+000   0.00000E+000   0.00000E+000   0.00000E+000   0.00000E+000   0.00000E+000   0.00000E+000
   0.00000E+000   0.00000E+000   0.00000E+000   0.00000E+000   0.00000E+000   0.00000E+000   0.00000E+000   0.00000E+000   0.00000E+000
   0.00000E+000   0.00000E+000   0.00000E+000   0.00000E+000   0.00000E+000   0.00000E+000   0.00000E+000   0.00000E+000   0.00000E+000
   0.00000E+000   0.00000E+000   0.00000E+000   0.00000E+000   0.00000E+000   0.00000E+000   0.00000E+000   0.00000E+000   0.00000E+000
   0.00000E+000   0.00000E+000   0.00000E+000   0.00000E+000   0.00000E+000   0.00000E+000   0.00000E+000   0.00000E+000   0.00000E+000
   0.00000E+000   0.00000E+000   0.00000E+000   0.00000E+000   0.00000E+000   0.00000E+000   0.00000E+000   0.00000E+000   0.00000E+000
   0.00000E+000   0.00000E+000   0.00000E+000   0.00000E+000   0.00000E+000   0.00000E+000   0.00000E+000   0.00000E+000   0.00000E+000
   0.00000E+000   0.00000E+000   0.00000E+000   0.00000E+000   0.00000E+000   0.00000E+000   0.00000E+000   0.00000E+000   0.00000E+000
   0.00000E+000   0.00000E+000   0.00000E+000   0.00000E+000   0.00000E+000   0.00000E+000   0.00000E+000   0.00000E+000   0.00000E+000
   0.00000E+000   0.00000E+000   0.00000E+000   0.00000E+000   0.00000E+000   0.00000E+000   0.00000E+000   0.00000E+000   0.00000E+000
   0.00000E+000   0.00000E+000   0.00000E+000   0.00000E+000   0.00000E+000   0.00000E+000   0.00000E+000   0.00000E+000   0.00000E+000
   0.00000E+000   0.00000E+000   0.00000E+000   0.00000E+000   0.00000E+000   0.00000E+000   0.00000E+000   0.00000E+000   0.00000E+000
   0.00000E+000   0.00000E+000   0.00000E+000   0.00000E+000   0.00000E+000   0.00000E+000   0.00000E+000   0.00000E+000   0.00000E+000
   0.00000E+000   0.00000E+000   0.00000E+000   0.00000E+000   0.00000E+000   0.00000E+000   0.00000E+000   0.00000E+000   0.00000E+000
   0.00000E+000   0.00000E+000   0.00000E+000   0.00000E+000   0.00000E+000   0.00000E+000   0.00000E+000   0.00000E+000   0.00000E+000
   0.00000E+000   0.00000E+000   0.00000E+000   0.00000E+000   0.00000E+000   0.00000E+000   0.00000E+000   0.00000E+000   0.00000E+000
   0.00000E+000   0.00000E+000   0.00000E+000   0.00000E+000   0.00000E+000   0.00000E+000   0.00000E+000   0.00000E+000   0.00000E+000
   0.00000E+000   0.00000E+000   0.00000E+000   0.00000E+000   0.00000E+000   0.00000E+000   0.00000E+000   0.00000E+000   0.00000E+000
   0.00000E+000   0.00000E+000   0.00000E+000   0.00000E+000   0.00000E+000   0.00000E+000   0.00000E+000   0.00000E+000   0.00000E+000
   0.00000E+000   0.00000E+000   0.00000E+000   0.00000E+000   0.00000E+000   0.00000E+000   0.00000E+000   0.00000E+000   0.00000E+000
   0.00000E+000   0.00000E+000   0.00000E+000   0.00000E+000   0.00000E+000   0.00000E+000   0.00000E+000   0.00000E+000   0.00000E+000
   0.00000E+000   0.00000E+000   0.00000E+000   0.00000E+000   0.00000E+000   0.00000E+000   0.00000E+000   0.00000E+000   0.00000E+000
   0.00000E+000   0.00000E+000   0.00000E+000   0.00000E+000   0.00000E+000   0.00000E+000   0.00000E+000   0.00000E+000   0.00000E+000
   0.00000E+000   0.00000E+000   0.00000E+000   0.00000E+000   0.00000E+000   0.00000E+000   0.00000E+000   0.00000E+000   0.00000E+000
   0.00000E+000   0.00000E+000   0.00000E+000   0.00000E+000   0.00000E+000   0.00000E+000   0.00000E+000   0.00000E+000   0.00000E+000
   0.00000E+000   0.00000E+000   0.00000E+000   0.00000E+000   0.00000E+000   0.00000E+000   0.00000E+000   0.00000E+000   0.00000E+000
   0.00000E+000   0.00000E+000   0.00000E+000   0.00000E+000   0.00000E+000   0.00000E+000   0.00000E+000   0.00000E+000   0.00000E+000
   0.00000E+000   0.00000E+000   0.00000E+000   0.00000E+000   0.00000E+000   0.00000E+000   0.00000E+000   0.00000E+000   0.00000E+000
   0.00000E+000   0.00000E+000   0.00000E+000   0.00000E+000   0.00000E+000   0.00000E+000   0.00000E+000   0.00000E+000   0.00000E+000
   0.00000E+000   0.00000E+000   0.00000E+000   0.00000E+000   0.00000E+000   0.00000E+000   0.00000E+000   0.00000E+000   0.00000E+000
   0.00000E+000   0.00000E+000   0.00000E+000   0.00000E+000   0.00000E+000   0.00000E+000   0.00000E+000   0.00000E+000   0.00000E+000
   0.00000E+000   0.00000E+000   0.00000E+000   0.00000E+000   0.00000E+000   0.00000E+000   0.00000E+000   0.00000E+000   0.00000E+000
   0.00000E+000   0.00000E+000   0.00000E+000   0.00000E+000   0.00000E+000   0.00000E+000   0.00000E+000   0.00000E+000   0.00000E+000
   0.00000E+000   0.00000E+000   0.00000E+000   0.00000E+000   0.00000E+000   0.00000E+000   0.00000E+000   0.00000E+000   0.00000E+000
   0.00000E+000   0.00000E+000   0.00000E+000   0.00000E+000   0.00000E+000   0.00000E+000   0.00000E+000   0.00000E+000   0.00000E+000
   0.00000E+000   0.00000E+000   0.00000E+000   0.00000E+000   0.00000E+000   0.00000E+000   0.00000E+000   0.00000E+000   0.00000E+000
   0.00000E+000   0.00000E+000   0.00000E+000   0.00000E+000   0.00000E+000   0.00000E+000   0.00000E+000   0.00000E+000   0.00000E+000
   0.00000E+000   0.00000E+000   0.00000E+000   0.00000E+000   0.00000E+000   0.00000E+000   0.00000E+000   0.00000E+000   0.00000E+000
   0.00000E+000   0.00000E+000   0.00000E+000   0.00000E+000   0.00000E+000   0.00000E+000   0.00000E+000   0.00000E+000   0.00000E+000
   0.00000E+000   0.00000E+000   0.00000E+000   0.00000E+000   0.00000E+000   0.00000E+000   0.00000E+000   0.00000E+000   0.00000E+000
   0.00000E+000   0.00000E+000   0.00000E+000   0.00000E+000   0.00000E+000   0.00000E+000   0.00000E+000   0.00000E+000   0.00000E+000
   0.00000E+000   0.00000E+000   0.00000E+000   0.00000E+000   0.00000E+000   0.00000E+000   0.00000E+000   0.00000E+000   0.00000E+000
   0.00000E+000   0.00000E+000   0.00000E+000   0.00000E+000   0.00000E+000   0.00000E+000   0.00000E+000   0.00000E+000   0.00000E+000
   0.00000E+000   0.00000E+000   0.00000E+000   0.00000E+000   0.00000E+000   0.00000E+000   0.00000E+000   0.00000E+000   0.00000E+000
   0.00000E+000   0.00000E+000   0.00000E+000   0.00000E+000   0.00000E+000   0.00000E+000   0.00000E+000   0.00000E+000   0.00000E+000
   0.00000E+000   0.00000E+000   0.00000E+000   0.00000E+000   0.00000E+000   0.00000E+000   0.00000E+000   0.00000E+000   0.00000E+000
   0.00000E+000   0.00000E+000   0.00000E+000   0.00000E+000   0.00000E+000   0.00000E+000   0.00000E+000   0.00000E+000   0.00000E+000
   0.00000E+000   0.00000E+000   0.00000E+000   0.00000E+000   0.00000E+000   0.00000E+000   0.00000E+000   0.00000E+000   0.00000E+000
   0.00000E+000   0.00000E+000   0.00000E+000   0.00000E+000   0.00000E+000   0.00000E+000   0.00000E+000   0.00000E+000   0.00000E+000
   0.00000E+000   0.00000E+000   0.00000E+000   0.00000E+000   0.00000E+000   0.00000E+000   0.00000E+000   0.00000E+000   0.00000E+000
   0.00000E+000   0.00000E+000   0.00000E+000   0.00000E+000   0.00000E+000   0.00000E+000   0.00000E+000   0.00000E+000   0.00000E+000
   0.00000E+000   0.00000E+000   0.00000E+000   0.00000E+000   0.00000E+000   0.00000E+000   0.00000E+000   0.00000E+000   0.00000E+000
   0.00000E+000   0.00000E+000   0.00000E+000   0.00000E+000   0.00000E+000   0.00000E+000   0.00000E+000   0.00000E+000   0.00000E+000
   0.00000E+000   0.00000E+000   0.00000E+000   0.00000E+000   0.00000E+000   0.00000E+000   0.00000E+000   0.00000E+000   0.00000E+000
   0.00000E+000   0.00000E+000   0.00000E+000   0.00000E+000   0.00000E+000   0.00000E+000   0.00000E+000   0.00000E+000   0.00000E+000
   0.00000E+000   0.00000E+000   0.00000E+000   0.00000E+000   0.00000E+000   0.00000E+000   0.00000E+000   0.00000E+000   0.00000E+000
   0.00000E+000   0.00000E+000   0.00000E+000   0.00000E+000   0.00000E+000   0.00000E+000   0.00000E+000   0.00000E+000   0.00000E+000
   0.00000E+000   0.00000E+000   0.00000E+000   0.00000E+000   0.00000E+000   0.00000E+000   0.00000E+000   0.00000E+000   0.00000E+000
   0.00000E+000   0.00000E+000   0.00000E+000   0.00000E+000   0.00000E+000   0.00000E+000   0.00000E+000   0.00000E+000   0.00000E+000
   0.00000E+000   0.00000E+000   0.00000E+000   0.00000E+000   0.00000E+000   0.00000E+000   0.00000E+000   0.00000E+000   0.00000E+000
   0.00000E+000   0.00000E+000   0.00000E+000   0.00000E+000   0.00000E+000   0.00000E+000   0.00000E+000   0.00000E+000   0.00000E+000
   0.00000E+000   0.00000E+000   0.00000E+000   0.00000E+000   0.00000E+000   0.00000E+000   0.00000E+000   0.00000E+000   0.00000E+000
   0.00000E+000   0.00000E+000   0.00000E+000   0.00000E+000   0.00000E+000   0.00000E+000   0.00000E+000   0.00000E+000   0.00000E+000
   0.00000E+000   0.00000E+000   0.00000E+000   0.00000E+000   0.00000E+000   0.00000E+000   0.00000E+000   0.00000E+000   0.00000E+000
   0.00000E+000   0.00000E+000   0.00000E+000   0.00000E+000   0.00000E+000   0.00000E+000   0.00000E+000   0.00000E+000   0.00000E+000
   0.00000E+000   0.00000E+000   0.00000E+000   0.00000E+000   0.00000E+000   0.00000E+000   0.00000E+000   0.00000E+000   0.00000E+000
   0.00000E+000   0.00000E+000   0.00000E+000   0.00000E+000   0.00000E+000   0.00000E+000   0.00000E+000   0.00000E+000   0.00000E+000
   0.00000E+000   0.00000E+000   0.00000E+000   0.00000E+000   0.00000E+000   0.00000E+000   0.00000E+000   0.00000E+000   0.00000E+000
   0.00000E+000   0.00000E+000   0.00000E+000   0.00000E+000   0.00000E+000   0.00000E+000   0.00000E+000   0.00000E+000   0.00000E+000
   0.00000E+000   0.00000E+000   0.00000E+000   0.00000E+000   0.00000E+000   0.00000E+000   0.00000E+000   0.00000E+000   0.00000E+000
   0.00000E+000   0.00000E+000   0.00000E+000   0.00000E+000   0.00000E+000   0.00000E+000   0.00000E+000   0.00000E+000   0.00000E+000
   0.00000E+000   0.00000E+000   0.00000E+000   0.00000E+000   0.00000E+000   0.00000E+000   0.00000E+000   0.00000E+000   0.00000E+000
   0.00000E+000   0.00000E+000   0.00000E+000   0.00000E+000   0.00000E+000   0.00000E+000   0.00000E+000   0.00000E+000   0.00000E+000
   0.00000E+000   0.00000E+000   0.00000E+000   0.00000E+000   0.00000E+000   0.00000E+000   0.00000E+000   0.00000E+000   0.00000E+000
   0.00000E+000   0.00000E+000   0.00000E+000   0.00000E+000   0.00000E+000   0.00000E+000   0.00000E+000   0.00000E+000   0.00000E+000
   0.00000E+000   0.00000E+000   0.00000E+000   0.00000E+000   0.00000E+000   0.00000E+000   0.00000E+000   0.00000E+000   0.00000E+000
   0.00000E+000   0.00000E+000   0.00000E+000   0.00000E+000   0.00000E+000   0.00000E+000   0.00000E+000   0.00000E+000   0.00000E+000
   0.00000E+000   0.00000E+000   0.00000E+000   0.00000E+000   0.00000E+000   0.00000E+000   0.00000E+000   0.00000E+000   0.00000E+000
   0.00000E+000   0.00000E+000   0.00000E+000   0.00000E+000   0.00000E+000   0.00000E+000   0.00000E+000   0.00000E+000   0.00000E+000
   0.00000E+000   0.00000E+000   0.00000E+000   0.00000E+000   0.00000E+000   0.00000E+000   0.00000E+000   0.00000E+000   0.00000E+000
   0.00000E+000   0.00000E+000   0.00000E+000   0.00000E+000   0.00000E+000   0.00000E+000   0.00000E+000   0.00000E+000   0.00000E+000
   0.00000E+000   0.00000E+000   0.00000E+000   0.00000E+000   0.00000E+000   0.00000E+000   0.00000E+000   0.00000E+000   0.00000E+000
   0.00000E+000   0.00000E+000   0.00000E+000   0.00000E+000   0.00000E+000   0.00000E+000   0.00000E+000   0.00000E+000   0.00000E+000
   0.00000E+000   0.00000E+000   0.00000E+000   0.00000E+000   0.00000E+000   0.00000E+000   0.00000E+000   0.00000E+000   0.00000E+000
   0.00000E+000   0.00000E+000   0.00000E+000   0.00000E+000   0.00000E+000   0.00000E+000   0.00000E+000   0.00000E+000   0.00000E+000
   0.00000E+000   0.00000E+000   0.00000E+000   0.00000E+000   0.00000E+000   0.00000E+000   0.00000E+000   0.00000E+000   0.00000E+000
   0.00000E+000   0.00000E+000   0.00000E+000   0.00000E+000   0.00000E+000   0.00000E+000   0.00000E+000   0.00000E+000   0.00000E+000
   0.00000E+000   0.00000E+000   0.00000E+000   0.00000E+000   0.00000E+000   0.00000E+000   0.00000E+000   0.00000E+000   0.00000E+000
   0.00000E+000   0.00000E+000   0.00000E+000   0.00000E+000   0.00000E+000   0.00000E+000   0.00000E+000   0.00000E+000   0.00000E+000
   0.00000E+000   0.00000E+000   0.00000E+000   0.00000E+000   0.00000E+000   0.00000E+000   0.00000E+000   0.00000E+000   0.00000E+000
   0.00000E+000   0.00000E+000   0.00000E+000   0.00000E+000   0.00000E+000   0.00000E+000   0.00000E+000   0.00000E+000   0.00000E+000
   0.00000E+000   0.00000E+000   0.00000E+000   0.00000E+000   0.00000E+000   0.00000E+000   0.00000E+000   0.00000E+000   0.00000E+000
   0.00000E+000   0.00000E+000   0.00000E+000   0.00000E+000   0.00000E+000   0.00000E+000   0.00000E+000   0.00000E+000   0.00000E+000
   0.00000E+000   0.00000E+000   0.00000E+000   0.00000E+000   0.00000E+000   0.00000E+000   0.00000E+000   0.00000E+000   0.00000E+000
   0.00000E+000   0.00000E+000   0.00000E+000   0.00000E+000   0.00000E+000   0.00000E+000   0.00000E+000   0.00000E+000   0.00000E+000
   0.00000E+000   0.00000E+000   0.00000E+000   0.00000E+000   0.00000E+000   0.00000E+000   0.00000E+000   0.00000E+000   0.00000E+000
   0.00000E+000   0.00000E+000   0.00000E+000   0.00000E+000   0.00000E+000   0.00000E+000   0.00000E+000   0.00000E+000   0.00000E+000
   0.00000E+000   0.00000E+000   0.00000E+000   0.00000E+000   0.00000E+000   0.00000E+000   0.00000E+000   0.00000E+000   0.00000E+000
   0.00000E+000   0.00000E+000   0.00000E+000   0.00000E+000   0.00000E+000   0.00000E+000   0.00000E+000   0.00000E+000   0.00000E+000
   0.00000E+000   0.00000E+000   0.00000E+000   0.00000E+000   0.00000E+000   0.00000E+000   0.00000E+000   0.00000E+000   0.00000E+000
   0.00000E+000   0.00000E+000   0.00000E+000   0.00000E+000   0.00000E+000   0.00000E+000   0.00000E+000   0.00000E+000   0.00000E+000
   0.00000E+000   0.00000E+000   0.00000E+000   0.00000E+000   0.00000E+000   0.00000E+000   0.00000E+000   0.00000E+000   0.00000E+000
   0.00000E+000   0.00000E+000   0.00000E+000   0.00000E+000   0.00000E+000   0.00000E+000   0.00000E+000   0.00000E+000   0.00000E+000
   0.00000E+000   0.00000E+000   0.00000E+000   0.00000E+000   0.00000E+000   0.00000E+000   0.00000E+000   0.00000E+000   0.00000E+000
   0.00000E+000   0.00000E+000   0.00000E+000   0.00000E+000   0.00000E+000   0.00000E+000   0.00000E+000   0.00000E+000   0.00000E+000
   0.00000E+000   0.00000E+000   0.00000E+000   0.00000E+000   0.00000E+000   0.00000E+000   0.00000E+000   0.00000E+000   0.00000E+000
   0.00000E+000   0.00000E+000   0.00000E+000   0.00000E+000   0.00000E+000   0.00000E+000   0.00000E+000   0.00000E+000   0.00000E+000
   0.00000E+000   0.00000E+000   0.00000E+000   0.00000E+000   0.00000E+000   0.00000E+000   0.00000E+000   0.00000E+000   0.00000E+000
   0.00000E+000   0.00000E+000   0.00000E+000   0.00000E+000   0.00000E+000   0.00000E+000   0.00000E+000   0.00000E+000   0.00000E+000
   0.00000E+000   0.00000E+000   0.00000E+000   0.00000E+000   0.00000E+000   0.00000E+000   0.00000E+000   0.00000E+000   0.00000E+000
   0.00000E+000   0.00000E+000   0.00000E+000   0.00000E+000   0.00000E+000   0.00000E+000   0.00000E+000   0.00000E+000   0.00000E+000
   0.00000E+000   0.00000E+000   0.00000E+000   0.00000E+000   0.00000E+000   0.00000E+000   0.00000E+000   0.00000E+000   0.00000E+000
   0.00000E+000   0.00000E+000   0.00000E+000   0.00000E+000   0.00000E+000   0.00000E+000   0.00000E+000   0.00000E+000   0.00000E+000
   0.00000E+000   0.00000E+000   0.00000E+000   0.00000E+000   0.00000E+000   0.00000E+000   0.00000E+000   0.00000E+000   0.00000E+000
   0.00000E+000   0.00000E+000   0.00000E+000   0.00000E+000   0.00000E+000   0.00000E+000   0.00000E+000   0.00000E+000   0.00000E+000
   0.00000E+000   0.00000E+000   0.00000E+000   0.00000E+000   0.00000E+000   0.00000E+000   0.00000E+000   0.00000E+000   0.00000E+000
   0.00000E+000   0.00000E+000   0.00000E+000   0.00000E+000   0.00000E+000   0.00000E+000   0.00000E+000   0.00000E+000   0.00000E+000
   0.00000E+000   0.00000E+000   0.00000E+000   0.00000E+000   0.00000E+000   0.00000E+000   0.00000E+000   0.00000E+000   0.00000E+000
   0.00000E+000   0.00000E+000   0.00000E+000   0.00000E+000   0.00000E+000   0.00000E+000   0.00000E+000   0.00000E+000   0.00000E+000
   0.00000E+000   0.00000E+000   0.00000E+000   0.00000E+000   0.00000E+000   0.00000E+000   0.00000E+000   0.00000E+000   0.00000E+000
   0.00000E+000   0.00000E+000   0.00000E+000   0.00000E+000   0.00000E+000   0.00000E+000   0.00000E+000   0.00000E+000   0.00000E+000
   0.00000E+000   0.00000E+000   0.00000E+000   0.00000E+000   0.00000E+000   0.00000E+000   0.00000E+000   0.00000E+000   0.00000E+000
   0.00000E+000   0.00000E+000   0.00000E+000   0.00000E+000   0.00000E+000   0.00000E+000   0.00000E+000   0.00000E+000   0.00000E+000
   0.00000E+000   0.00000E+000   0.00000E+000   0.00000E+000   0.00000E+000   0.00000E+000   0.00000E+000   0.00000E+000   0.00000E+000
   0.00000E+000   0.00000E+000   0.00000E+000   0.00000E+000   0.00000E+000   0.00000E+000   0.00000E+000   0.00000E+000   0.00000E+000
   0.00000E+000   0.00000E+000   0.00000E+000   0.00000E+000   0.00000E+000   0.00000E+000   0.00000E+000   0.00000E+000   0.00000E+000
   0.00000E+000   0.00000E+000   0.00000E+000   0.00000E+000   0.00000E+000   0.00000E+000   0.00000E+000   0.00000E+000   0.00000E+000
   0.00000E+000   0.00000E+000   0.00000E+000   0.00000E+000   0.00000E+000   0.00000E+000   0.00000E+000   0.00000E+000   0.00000E+000
   0.00000E+000   0.00000E+000   0.00000E+000   0.00000E+000   0.00000E+000   0.00000E+000   0.00000E+000   0.00000E+000   0.00000E+000
   0.00000E+000   0.00000E+000   0.00000E+000   0.00000E+000   0.00000E+000   0.00000E+000   0.00000E+000   0.00000E+000   0.00000E+000
   0.00000E+000   0.00000E+000   0.00000E+000   0.00000E+000   0.00000E+000   0.00000E+000   0.00000E+000   0.00000E+000   0.00000E+000
   0.00000E+000   0.00000E+000   0.00000E+000   0.00000E+000   0.00000E+000   0.00000E+000   0.00000E+000   0.00000E+000   0.00000E+000
   0.00000E+000   0.00000E+000   0.00000E+000   0.00000E+000   0.00000E+000   0.00000E+000   0.00000E+000   0.00000E+000   0.00000E+000
   0.00000E+000   0.00000E+000   0.00000E+000   0.00000E+000   0.00000E+000   0.00000E+000   0.00000E+000   0.00000E+000   0.00000E+000
   0.00000E+000   0.00000E+000   0.00000E+000   0.00000E+000   0.00000E+000   0.00000E+000   0.00000E+000   0.00000E+000   0.00000E+000
   0.00000E+000   0.00000E+000   0.00000E+000   0.00000E+000   0.00000E+000   0.00000E+000   0.00000E+000   0.00000E+000   0.00000E+000
   0.00000E+000   0.00000E+000   0.00000E+000   0.00000E+000   0.00000E+000   0.00000E+000   0.00000E+000   0.00000E+000   0.00000E+000
   0.00000E+000   0.00000E+000   0.00000E+000   0.00000E+000   0.00000E+000   0.00000E+000   0.00000E+000   0.00000E+000   0.00000E+000
   0.00000E+000   0.00000E+000   0.00000E+000   0.00000E+000   0.00000E+000   0.00000E+000   0.00000E+000   0.00000E+000   0.00000E+000
   0.00000E+000   0.00000E+000   0.00000E+000   0.00000E+000   0.00000E+000   0.00000E+000   0.00000E+000   0.00000E+000   0.00000E+000
   0.00000E+000   0.00000E+000   0.00000E+000   0.00000E+000   0.00000E+000   0.00000E+000   0.00000E+000   0.00000E+000   0.00000E+000
   0.00000E+000   0.00000E+000   0.00000E+000   0.00000E+000   0.00000E+000   0.00000E+000   0.00000E+000   0.00000E+000   0.00000E+000
   0.00000E+000   0.00000E+000   0.00000E+000   0.00000E+000   0.00000E+000   0.00000E+000   0.00000E+000   0.00000E+000   0.00000E+000
   0.00000E+000   0.00000E+000   0.00000E+000   0.00000E+000   0.00000E+000   0.00000E+000   0.00000E+000   0.00000E+000   0.00000E+000
   0.00000E+000   0.00000E+000   0.00000E+000   0.00000E+000   0.00000E+000   0.00000E+000   0.00000E+000   0.00000E+000   0.00000E+000
   0.00000E+000   0.00000E+000   0.00000E+000   0.00000E+000   0.00000E+000   0.00000E+000   0.00000E+000   0.00000E+000   0.00000E+000
   0.00000E+000   0.00000E+000   0.00000E+000   0.00000E+000   0.00000E+000   0.00000E+000   0.00000E+000   0.00000E+000   0.00000E+000
   0.00000E+000   0.00000E+000   0.00000E+000   0.00000E+000   0.00000E+000   0.00000E+000   0.00000E+000   0.00000E+000   0.00000E+000
   0.00000E+000   0.00000E+000   0.00000E+000   0.00000E+000   0.00000E+000   0.00000E+000   0.00000E+000   0.00000E+000   0.00000E+000
   0.00000E+000   0.00000E+000   0.00000E+000   0.00000E+000   0.00000E+000   0.00000E+000   0.00000E+000   0.00000E+000   0.00000E+000
   0.00000E+000   0.00000E+000   0.00000E+000   0.00000E+000   0.00000E+000   0.00000E+000   0.00000E+000   0.00000E+000   0.00000E+000
   0.00000E+000   0.00000E+000   0.00000E+000   0.00000E+000   0.00000E+000   0.00000E+000   0.00000E+000   0.00000E+000   0.00000E+000
   0.00000E+000   0.00000E+000   0.00000E+000   0.00000E+000   0.00000E+000   0.00000E+000   0.00000E+000   0.00000E+000   0.00000E+000
   0.00000E+000   0.00000E+000   0.00000E+000   0.00000E+000   0.00000E+000   0.00000E+000   0.00000E+000   0.00000E+000   0.00000E+000
   0.00000E+000   0.00000E+000   0.00000E+000   0.00000E+000   0.00000E+000   0.00000E+000   0.00000E+000   0.00000E+000   0.00000E+000
   0.00000E+000   0.00000E+000   0.00000E+000   0.00000E+000   0.00000E+000   0.00000E+000   0.00000E+000   0.00000E+000   0.00000E+000
   0.00000E+000   0.00000E+000   0.00000E+000   0.00000E+000   0.00000E+000   0.00000E+000   0.00000E+000   0.00000E+000   0.00000E+000
   0.00000E+000   0.00000E+000   0.00000E+000   0.00000E+000   0.00000E+000   0.00000E+000   0.00000E+000   0.00000E+000   0.00000E+000
   0.00000E+000   0.00000E+000   0.00000E+000   0.00000E+000   0.00000E+000   0.00000E+000   0.00000E+000   0.00000E+000   0.00000E+000
   0.00000E+000   0.00000E+000   0.00000E+000   0.00000E+000   0.00000E+000   0.00000E+000   0.00000E+000   0.00000E+000   0.00000E+000
   0.00000E+000   0.00000E+000   0.00000E+000   0.00000E+000   0.00000E+000   0.00000E+000   0.00000E+000   0.00000E+000   0.00000E+000
   0.00000E+000   0.00000E+000   0.00000E+000   0.00000E+000   0.00000E+000   0.00000E+000   0.00000E+000   0.00000E+000   0.00000E+000
   0.00000E+000   0.00000E+000   0.00000E+000   0.00000E+000   0.00000E+000   0.00000E+000   0.00000E+000   0.00000E+000   0.00000E+000
   0.00000E+000   0.00000E+000   0.00000E+000   0.00000E+000   0.00000E+000   0.00000E+000   0.00000E+000   0.00000E+000   0.00000E+000
   0.00000E+000   0.00000E+000   0.00000E+000   0.00000E+000   0.00000E+000   0.00000E+000   0.00000E+000   0.00000E+000   0.00000E+000
   0.00000E+000   0.00000E+000   0.00000E+000   0.00000E+000   0.00000E+000   0.00000E+000   0.00000E+000   0.00000E+000   0.00000E+000
   0.00000E+000   0.00000E+000   0.00000E+000   0.00000E+000   0.00000E+000   0.00000E+000   0.00000E+000   0.00000E+000   0.00000E+000
   0.00000E+000   0.00000E+000   0.00000E+000   0.00000E+000   0.00000E+000   0.00000E+000   0.00000E+000   0.00000E+000   0.00000E+000
   0.00000E+000   0.00000E+000   0.00000E+000   0.00000E+000   0.00000E+000   0.00000E+000   0.00000E+000   0.00000E+000   0.00000E+000
   0.00000E+000   0.00000E+000   0.00000E+000   0.00000E+000   0.00000E+000   0.00000E+000   0.00000E+000   0.00000E+000   0.00000E+000
   0.00000E+000   0.00000E+000   0.00000E+000   0.00000E+000   0.00000E+000   0.00000E+000   0.00000E+000   0.00000E+000   0.00000E+000
   0.00000E+000   0.00000E+000   0.00000E+000   0.00000E+000   0.00000E+000   0.00000E+000   0.00000E+000   0.00000E+000   0.00000E+000
   0.00000E+000   0.00000E+000   0.00000E+000   0.00000E+000   0.00000E+000   0.00000E+000   0.00000E+000   0.00000E+000   0.00000E+000
   0.00000E+000   0.00000E+000   0.00000E+000   0.00000E+000   0.00000E+000   0.00000E+000   0.00000E+000   0.00000E+000   0.00000E+000
   0.00000E+000   0.00000E+000   0.00000E+000   0.00000E+000   0.00000E+000   0.00000E+000   0.00000E+000   0.00000E+000   0.00000E+000
   0.00000E+000   0.00000E+000   0.00000E+000   0.00000E+000   0.00000E+000   0.00000E+000   0.00000E+000   0.00000E+000   0.00000E+000
   0.00000E+000   0.00000E+000   0.00000E+000   0.00000E+000   0.00000E+000   0.00000E+000   0.00000E+000   0.00000E+000   0.00000E+000
   0.00000E+000   0.00000E+000   0.00000E+000   0.00000E+000   0.00000E+000   0.00000E+000   0.00000E+000   0.00000E+000   0.00000E+000
   0.00000E+000   0.00000E+000   0.00000E+000   0.00000E+000   0.00000E+000   0.00000E+000   0.00000E+000   0.00000E+000   0.00000E+000
   0.00000E+000   0.00000E+000   0.00000E+000   0.00000E+000   0.00000E+000   0.00000E+000   0.00000E+000   0.00000E+000   0.00000E+000
   0.00000E+000   0.00000E+000   0.00000E+000   0.00000E+000   0.00000E+000   0.00000E+000   0.00000E+000   0.00000E+000   0.00000E+000
   0.00000E+000   0.00000E+000   0.00000E+000   0.00000E+000   0.00000E+000   0.00000E+000   0.00000E+000   0.00000E+000   0.00000E+000
   0.00000E+000   0.00000E+000   0.00000E+000   0.00000E+000   0.00000E+000   0.00000E+000   0.00000E+000   0.00000E+000   0.00000E+000
   0.00000E+000   0.00000E+000   0.00000E+000   0.00000E+000   0.00000E+000   0.00000E+000   0.00000E+000   0.00000E+000   0.00000E+000
   0.00000E+000   0.00000E+000   0.00000E+000   0.00000E+000   0.00000E+000   0.00000E+000   0.00000E+000   0.00000E+000   0.00000E+000
   0.00000E+000   0.00000E+000   0.00000E+000   0.00000E+000   0.00000E+000   0.00000E+000   0.00000E+000   0.00000E+000   0.00000E+000
   0.00000E+000   0.00000E+000   0.00000E+000   0.00000E+000   0.00000E+000   0.00000E+000   0.00000E+000   0.00000E+000   0.00000E+000
   0.00000E+000   0.00000E+000   0.00000E+000   0.00000E+000   0.00000E+000   0.00000E+000   0.00000E+000   0.00000E+000   0.00000E+000
   0.00000E+000   0.00000E+000   0.00000E+000   0.00000E+000   0.00000E+000   0.00000E+000   0.00000E+000   0.00000E+000   0.00000E+000
   0.00000E+000   0.00000E+000   0.00000E+000   0.00000E+000   0.00000E+000   0.00000E+000   0.00000E+000   0.00000E+000   0.00000E+000
   0.00000E+000   0.00000E+000   0.00000E+000   0.00000E+000   0.00000E+000   0.00000E+000   0.00000E+000   0.00000E+000   0.00000E+000
   0.00000E+000   0.00000E+000   0.00000E+000   0.00000E+000   0.00000E+000   0.00000E+000   0.00000E+000   0.00000E+000   0.00000E+000
   0.00000E+000   0.00000E+000   0.00000E+000   0.00000E+000   0.00000E+000   0.00000E+000   0.00000E+000   0.00000E+000   0.00000E+000
   0.00000E+000   0.00000E+000   0.00000E+000   0.00000E+000   0.00000E+000   0.00000E+000   0.00000E+000   0.00000E+000   0.00000E+000
   0.00000E+000   0.00000E+000   0.00000E+000   0.00000E+000   0.00000E+000   0.00000E+000   0.00000E+000   0.00000E+000   0.00000E+000
   0.00000E+000   0.00000E+000   0.00000E+000   0.00000E+000   0.00000E+000   0.00000E+000   0.00000E+000   0.00000E+000   0.00000E+000
   0.00000E+000   0.00000E+000   0.00000E+000   0.00000E+000   0.00000E+000   0.00000E+000   0.00000E+000   0.00000E+000   0.00000E+000
   0.00000E+000   0.00000E+000   0.00000E+000   0.00000E+000   0.00000E+000   0.00000E+000   0.00000E+000   0.00000E+000   0.00000E+000
   0.00000E+000   0.00000E+000   0.00000E+000   0.00000E+000   0.00000E+000   0.00000E+000   0.00000E+000   0.00000E+000   0.00000E+000
   0.00000E+000   0.00000E+000   0.00000E+000   0.00000E+000   0.00000E+000   0.00000E+000   0.00000E+000   0.00000E+000   0.00000E+000
   0.00000E+000   0.00000E+000   0.00000E+000   0.00000E+000   0.00000E+000   0.00000E+000   0.00000E+000   0.00000E+000   0.00000E+000
   0.00000E+000   0.00000E+000   0.00000E+000   0.00000E+000   0.00000E+000   0.00000E+000   0.00000E+000   0.00000E+000   0.00000E+000
   0.00000E+000   0.00000E+000   0.00000E+000   0.00000E+000   0.00000E+000   0.00000E+000   0.00000E+000   0.00000E+000   0.00000E+000
   0.00000E+000   0.00000E+000   0.00000E+000   0.00000E+000   0.00000E+000   0.00000E+000   0.00000E+000   0.00000E+000   0.00000E+000
   0.00000E+000   0.00000E+000   0.00000E+000   0.00000E+000   0.00000E+000   0.00000E+000   0.00000E+000   0.00000E+000   0.00000E+000
   0.00000E+000   0.00000E+000   0.00000E+000   0.00000E+000   0.00000E+000   0.00000E+000   0.00000E+000   0.00000E+000   0.00000E+000
   0.00000E+000   0.00000E+000   0.00000E+000   0.00000E+000   0.00000E+000   0.00000E+000   0.00000E+000   0.00000E+000   0.00000E+000
   0.00000E+000   0.00000E+000   0.00000E+000   0.00000E+000   0.00000E+000   0.00000E+000   0.00000E+000   0.00000E+000   0.00000E+000
   0.00000E+000   0.00000E+000   0.00000E+000   0.00000E+000   0.00000E+000   0.00000E+000   0.00000E+000   0.00000E+000   0.00000E+000
   0.00000E+000   0.00000E+000   0.00000E+000   0.00000E+000   0.00000E+000   0.00000E+000   0.00000E+000   0.00000E+000   0.00000E+000
   0.00000E+000   0.00000E+000   0.00000E+000   0.00000E+000   0.00000E+000   0.00000E+000   0.00000E+000   0.00000E+000   0.00000E+000
   0.00000E+000   0.00000E+000   0.00000E+000   0.00000E+000   0.00000E+000   0.00000E+000   0.00000E+000   0.00000E+000   0.00000E+000
   0.00000E+000   0.00000E+000   0.00000E+000   0.00000E+000   0.00000E+000   0.00000E+000   0.00000E+000   0.00000E+000   0.00000E+000
   0.00000E+000   0.00000E+000   0.00000E+000   0.00000E+000   0.00000E+000   0.00000E+000   0.00000E+000   0.00000E+000   0.00000E+000
   0.00000E+000   0.00000E+000   0.00000E+000   0.00000E+000   0.00000E+000   0.00000E+000   0.00000E+000   0.00000E+000   0.00000E+000
   0.00000E+000   0.00000E+000   0.00000E+000   0.00000E+000   0.00000E+000   0.00000E+000   0.00000E+000   0.00000E+000   0.00000E+000
   0.00000E+000   0.00000E+000   0.00000E+000   0.00000E+000   0.00000E+000   0.00000E+000   0.00000E+000   0.00000E+000   0.00000E+000
   0.00000E+000   0.00000E+000   0.00000E+000   0.00000E+000   0.00000E+000   0.00000E+000   0.00000E+000   0.00000E+000   0.00000E+000
   0.00000E+000   0.00000E+000   0.00000E+000   0.00000E+000   0.00000E+000   0.00000E+000   0.00000E+000   0.00000E+000   0.00000E+000
   0.00000E+000   0.00000E+000   0.00000E+000   0.00000E+000   0.00000E+000   0.00000E+000   0.00000E+000   0.00000E+000   0.00000E+000
   0.00000E+000   0.00000E+000   0.00000E+000   0.00000E+000   0.00000E+000   0.00000E+000   0.00000E+000   0.00000E+000   0.00000E+000
   0.00000E+000   0.00000E+000   0.00000E+000   0.00000E+000   0.00000E+000   0.00000E+000   0.00000E+000   0.00000E+000   0.00000E+000
   0.00000E+000   0.00000E+000   0.00000E+000   0.00000E+000   0.00000E+000   0.00000E+000   0.00000E+000   0.00000E+000   0.00000E+000
   0.00000E+000   0.00000E+000   0.00000E+000   0.00000E+000   0.00000E+000   0.00000E+000   0.00000E+000   0.00000E+000   0.00000E+000
   0.00000E+000   0.00000E+000   0.00000E+000   0.00000E+000   0.00000E+000   0.00000E+000   0.00000E+000   0.00000E+000   0.00000E+000
   0.00000E+000   0.00000E+000   0.00000E+000   0.00000E+000   0.00000E+000   0.00000E+000   0.00000E+000   0.00000E+000   0.00000E+000
   0.00000E+000   0.00000E+000   0.00000E+000   0.00000E+000   0.00000E+000   0.00000E+000   0.00000E+000   0.00000E+000   0.00000E+000
   0.00000E+000   0.00000E+000   0.00000E+000   0.00000E+000   0.00000E+000   0.00000E+000   0.00000E+000   0.00000E+000   0.00000E+000
   0.00000E+000   0.00000E+000   0.00000E+000   0.00000E+000   0.00000E+000   0.00000E+000   0.00000E+000   0.00000E+000   0.00000E+000
   0.00000E+000   0.00000E+000   0.00000E+000   0.00000E+000   0.00000E+000   0.00000E+000   0.00000E+000   0.00000E+000   0.00000E+000
   0.00000E+000   0.00000E+000   0.00000E+000   0.00000E+000   0.00000E+000   0.00000E+000   0.00000E+000   0.00000E+000   0.00000E+000
   0.00000E+000   0.00000E+000   0.00000E+000   0.00000E+000   0.00000E+000   0.00000E+000   0.00000E+000   0.00000E+000   0.00000E+000
   0.00000E+000   0.00000E+000   0.00000E+000   0.00000E+000   0.00000E+000   0.00000E+000   0.00000E+000   0.00000E+000   0.00000E+000
   0.00000E+000   0.00000E+000   0.00000E+000   0.00000E+000   0.00000E+000   0.00000E+000   0.00000E+000   0.00000E+000   0.00000E+000
   0.00000E+000   0.00000E+000   0.00000E+000   0.00000E+000   0.00000E+000   0.00000E+000   0.00000E+000   0.00000E+000   0.00000E+000
   0.00000E+000   0.00000E+000   0.00000E+000   0.00000E+000   0.00000E+000   0.00000E+000   0.00000E+000   0.00000E+000   0.00000E+000
   0.00000E+000   0.00000E+000   0.00000E+000   0.00000E+000   0.00000E+000   0.00000E+000   0.00000E+000   0.00000E+000   0.00000E+000
   0.00000E+000   0.00000E+000   0.00000E+000   0.00000E+000   0.00000E+000   0.00000E+000   0.00000E+000   0.00000E+000   0.00000E+000
   0.00000E+000   0.00000E+000   0.00000E+000   0.00000E+000   0.00000E+000   0.00000E+000   0.00000E+000   0.00000E+000   0.00000E+000
   0.00000E+000   0.00000E+000   0.00000E+000   0.00000E+000   0.00000E+000   0.00000E+000   0.00000E+000   0.00000E+000   0.00000E+000
   0.00000E+000   0.00000E+000   0.00000E+000   0.00000E+000   0.00000E+000   0.00000E+000   0.00000E+000   0.00000E+000   0.00000E+000
   0.00000E+000   0.00000E+000   0.00000E+000   0.00000E+000   0.00000E+000   0.00000E+000   0.00000E+000   0.00000E+000   0.00000E+000
   0.00000E+000   0.00000E+000   0.00000E+000   0.00000E+000   0.00000E+000   0.00000E+000   0.00000E+000   0.00000E+000   0.00000E+000
   0.00000E+000   0.00000E+000   0.00000E+000   0.00000E+000   0.00000E+000   0.00000E+000   0.00000E+000   0.00000E+000   0.00000E+000
   0.00000E+000   0.00000E+000   0.00000E+000   0.00000E+000   0.00000E+000   0.00000E+000   0.00000E+000   0.00000E+000   0.00000E+000
   0.00000E+000   0.00000E+000   0.00000E+000   0.00000E+000   0.00000E+000   0.00000E+000   0.00000E+000   0.00000E+000   0.00000E+000
   0.00000E+000   0.00000E+000   0.00000E+000   0.00000E+000   0.00000E+000   0.00000E+000   0.00000E+000   0.00000E+000   0.00000E+000
   0.00000E+000   0.00000E+000   0.00000E+000   0.00000E+000   0.00000E+000   0.00000E+000   0.00000E+000   0.00000E+000   0.00000E+000
   0.00000E+000   0.00000E+000   0.00000E+000   0.00000E+000   0.00000E+000   0.00000E+000   0.00000E+000   0.00000E+000   0.00000E+000
   0.00000E+000   0.00000E+000   0.00000E+000   0.00000E+000   0.00000E+000   0.00000E+000   0.00000E+000   0.00000E+000   0.00000E+000
   0.00000E+000   0.00000E+000   0.00000E+000   0.00000E+000   0.00000E+000   0.00000E+000   0.00000E+000   0.00000E+000   0.00000E+000
   0.00000E+000   0.00000E+000   0.00000E+000   0.00000E+000   0.00000E+000   0.00000E+000   0.00000E+000   0.00000E+000   0.00000E+000
   0.00000E+000   0.00000E+000   0.00000E+000   0.00000E+000   0.00000E+000   0.00000E+000   0.00000E+000   0.00000E+000   0.00000E+000
   0.00000E+000   0.00000E+000   0.00000E+000   0.00000E+000   0.00000E+000   0.00000E+000   0.00000E+000   0.00000E+000   0.00000E+000
   0.00000E+000   0.00000E+000   0.00000E+000   0.00000E+000   0.00000E+000   0.00000E+000   0.00000E+000   0.00000E+000   0.00000E+000
   0.00000E+000   0.00000E+000   0.00000E+000   0.00000E+000   0.00000E+000   0.00000E+000   0.00000E+000   0.00000E+000   0.00000E+000
   0.00000E+000   0.00000E+000   0.00000E+000   0.00000E+000   0.00000E+000   0.00000E+000   0.00000E+000   0.00000E+000   0.00000E+000
   0.00000E+000   0.00000E+000   0.00000E+000   0.00000E+000   0.00000E+000   0.00000E+000   0.00000E+000   0.00000E+000   0.00000E+000
   0.00000E+000   0.00000E+000   0.00000E+000   0.00000E+000   0.00000E+000   0.00000E+000   0.00000E+000   0.00000E+000   0.00000E+000
   0.00000E+000   0.00000E+000   0.00000E+000   0.00000E+000   0.00000E+000   0.00000E+000   0.00000E+000   0.00000E+000   0.00000E+000
   0.00000E+000   0.00000E+000   0.00000E+000   0.00000E+000   0.00000E+000   0.00000E+000   0.00000E+000   0.00000E+000   0.00000E+000
   0.00000E+000   0.00000E+000   0.00000E+000   0.00000E+000   0.00000E+000   0.00000E+000   0.00000E+000   0.00000E+000   0.00000E+000
   0.00000E+000   0.00000E+000   0.00000E+000   0.00000E+000   0.00000E+000   0.00000E+000   0.00000E+000   0.00000E+000   0.00000E+000
   0.00000E+000   0.00000E+000   0.00000E+000   0.00000E+000   0.00000E+000   0.00000E+000   0.00000E+000   0.00000E+000   0.00000E+000
   0.00000E+000   0.00000E+000   0.00000E+000   0.00000E+000   0.00000E+000   0.00000E+000   0.00000E+000   0.00000E+000   0.00000E+000
   0.00000E+000   0.00000E+000   0.00000E+000   0.00000E+000   0.00000E+000   0.00000E+000   0.00000E+000   0.00000E+000   0.00000E+000
   0.00000E+000   0.00000E+000   0.00000E+000   0.00000E+000   0.00000E+000   0.00000E+000   0.00000E+000   0.00000E+000   0.00000E+000
   0.00000E+000   0.00000E+000   0.00000E+000   0.00000E+000   0.00000E+000   0.00000E+000   0.00000E+000   0.00000E+000   0.00000E+000
   0.00000E+000   0.00000E+000   0.00000E+000   0.00000E+000   0.00000E+000   0.00000E+000   0.00000E+000   0.00000E+000   0.00000E+000
   0.00000E+000   0.00000E+000   0.00000E+000   0.00000E+000   0.00000E+000   0.00000E+000   0.00000E+000   0.00000E+000   0.00000E+000
   0.00000E+000   0.00000E+000   0.00000E+000   0.00000E+000   0.00000E+000   0.00000E+000   0.00000E+000   0.00000E+000   0.00000E+000
   0.00000E+000   0.00000E+000   0.00000E+000   0.00000E+000   0.00000E+000   0.00000E+000   0.00000E+000   0.00000E+000   0.00000E+000
   0.00000E+000   0.00000E+000   0.00000E+000   0.00000E+000   0.00000E+000   0.00000E+000   0.00000E+000   0.00000E+000   0.00000E+000
   0.00000E+000   0.00000E+000   0.00000E+000   0.00000E+000   0.00000E+000   0.00000E+000   0.00000E+000   0.00000E+000   0.00000E+000
   0.00000E+000   0.00000E+000   0.00000E+000   0.00000E+000   0.00000E+000   0.00000E+000   0.00000E+000   0.00000E+000   0.00000E+000
   0.00000E+000   0.00000E+000   0.00000E+000   0.00000E+000   0.00000E+000   0.00000E+000   0.00000E+000   0.00000E+000   0.00000E+000
   0.00000E+000   0.00000E+000   0.00000E+000   0.00000E+000   0.00000E+000   0.00000E+000   0.00000E+000   0.00000E+000   0.00000E+000
   0.00000E+000   0.00000E+000   0.00000E+000   0.00000E+000   0.00000E+000   0.00000E+000   0.00000E+000   0.00000E+000   0.00000E+000
   0.00000E+000   0.00000E+000   0.00000E+000   0.00000E+000   0.00000E+000   0.00000E+000   0.00000E+000   0.00000E+000   0.00000E+000
   0.00000E+000   0.00000E+000   0.00000E+000   0.00000E+000   0.00000E+000   0.00000E+000   0.00000E+000   0.00000E+000   0.00000E+000
   0.00000E+000   0.00000E+000   0.00000E+000   0.00000E+000   0.00000E+000   0.00000E+000   0.00000E+000   0.00000E+000   0.00000E+000
   0.00000E+000   0.00000E+000   0.00000E+000   0.00000E+000   0.00000E+000   0.00000E+000   0.00000E+000   0.00000E+000   0.00000E+000
   0.00000E+000   0.00000E+000   0.00000E+000   0.00000E+000   0.00000E+000   0.00000E+000   0.00000E+000   0.00000E+000   0.00000E+000
   0.00000E+000   0.00000E+000   0.00000E+000   0.00000E+000   0.00000E+000   0.00000E+000   0.00000E+000   0.00000E+000   0.00000E+000
   0.00000E+000   0.00000E+000   0.00000E+000   0.00000E+000   0.00000E+000   0.00000E+000   0.00000E+000   0.00000E+000   0.00000E+000
   0.00000E+000   0.00000E+000   0.00000E+000   0.00000E+000   0.00000E+000   0.00000E+000   0.00000E+000   0.00000E+000   0.00000E+000
   0.00000E+000   0.00000E+000   0.00000E+000   0.00000E+000   0.00000E+000   0.00000E+000   0.00000E+000   0.00000E+000   0.00000E+000
   0.00000E+000   0.00000E+000   0.00000E+000   0.00000E+000   0.00000E+000   0.00000E+000   0.00000E+000   0.00000E+000   0.00000E+000
   0.00000E+000   0.00000E+000   0.00000E+000   0.00000E+000   0.00000E+000   0.00000E+000   0.00000E+000   0.00000E+000   0.00000E+000
   0.00000E+000   0.00000E+000   0.00000E+000   0.00000E+000   0.00000E+000   0.00000E+000   0.00000E+000   0.00000E+000   0.00000E+000
   0.00000E+000   0.00000E+000   0.00000E+000   0.00000E+000   0.00000E+000   0.00000E+000   0.00000E+000   0.00000E+000   0.00000E+000
   0.00000E+000   0.00000E+000   0.00000E+000   0.00000E+000   0.00000E+000   0.00000E+000   0.00000E+000   0.00000E+000   0.00000E+000
   0.00000E+000   0.00000E+000   0.00000E+000   0.00000E+000   0.00000E+000   0.00000E+000   0.00000E+000   0.00000E+000   0.00000E+000
   0.00000E+000   0.00000E+000   0.00000E+000   0.00000E+000   0.00000E+000   0.00000E+000   0.00000E+000   0.00000E+000   0.00000E+000
   0.00000E+000   0.00000E+000   0.00000E+000   0.00000E+000   0.00000E+000   0.00000E+000   0.00000E+000   0.00000E+000   0.00000E+000
   0.00000E+000   0.00000E+000   0.00000E+000   0.00000E+000   0.00000E+000   0.00000E+000   0.00000E+000   0.00000E+000   0.00000E+000
   0.00000E+000   0.00000E+000   0.00000E+000   0.00000E+000   0.00000E+000   0.00000E+000   0.00000E+000   0.00000E+000   0.00000E+000
   0.00000E+000   0.00000E+000   0.00000E+000   0.00000E+000   0.00000E+000   0.00000E+000   0.00000E+000   0.00000E+000   0.00000E+000
   0.00000E+000   0.00000E+000   0.00000E+000   0.00000E+000   0.00000E+000   0.00000E+000   0.00000E+000   0.00000E+000   0.00000E+000
   0.00000E+000   0.00000E+000   0.00000E+000   0.00000E+000   0.00000E+000   0.00000E+000   0.00000E+000   0.00000E+000   0.00000E+000
   0.00000E+000   0.00000E+000   0.00000E+000   0.00000E+000   0.00000E+000   0.00000E+000   0.00000E+000   0.00000E+000   0.00000E+000
   0.00000E+000   0.00000E+000   0.00000E+000   0.00000E+000   0.00000E+000   0.00000E+000   0.00000E+000   0.00000E+000   0.00000E+000
   0.00000E+000   0.00000E+000   0.00000E+000   0.00000E+000   0.00000E+000   0.00000E+000   0.00000E+000   0.00000E+000   0.00000E+000
   0.00000E+000   0.00000E+000   0.00000E+000   0.00000E+000   0.00000E+000   0.00000E+000   0.00000E+000   0.00000E+000   0.00000E+000
   0.00000E+000   0.00000E+000   0.00000E+000   0.00000E+000   0.00000E+000   0.00000E+000   0.00000E+000   0.00000E+000   0.00000E+000
   0.00000E+000   0.00000E+000   0.00000E+000   0.00000E+000   0.00000E+000   0.00000E+000   0.00000E+000   0.00000E+000   0.00000E+000
   0.00000E+000   0.00000E+000   0.00000E+000   0.00000E+000   0.00000E+000   0.00000E+000   0.00000E+000   0.00000E+000   0.00000E+000
   0.00000E+000   0.00000E+000   0.00000E+000   0.00000E+000   0.00000E+000   0.00000E+000   0.00000E+000   0.00000E+000   0.00000E+000
   0.00000E+000   0.00000E+000   0.00000E+000   0.00000E+000   0.00000E+000   0.00000E+000   0.00000E+000   0.00000E+000   0.00000E+000
   0.00000E+000   0.00000E+000   0.00000E+000   0.00000E+000   0.00000E+000   0.00000E+000   0.00000E+000   0.00000E+000   0.00000E+000
   0.00000E+000   0.00000E+000   0.00000E+000   0.00000E+000   0.00000E+000   0.00000E+000   0.00000E+000   0.00000E+000   0.00000E+000
   0.00000E+000   0.00000E+000   0.00000E+000   0.00000E+000   0.00000E+000   0.00000E+000   0.00000E+000   0.00000E+000   0.00000E+000
   0.00000E+000   0.00000E+000   0.00000E+000   0.00000E+000   0.00000E+000   0.00000E+000   0.00000E+000   0.00000E+000   0.00000E+000
   0.00000E+000   0.00000E+000   0.00000E+000   0.00000E+000   0.00000E+000   0.00000E+000   0.00000E+000   0.00000E+000   0.00000E+000
   0.00000E+000   0.00000E+000   0.00000E+000   0.00000E+000   0.00000E+000   0.00000E+000   0.00000E+000   0.00000E+000   0.00000E+000
   0.00000E+000   0.00000E+000   0.00000E+000   0.00000E+000   0.00000E+000   0.00000E+000   0.00000E+000   0.00000E+000   0.00000E+000
   0.00000E+000   0.00000E+000   0.00000E+000   0.00000E+000   0.00000E+000   0.00000E+000   0.00000E+000   0.00000E+000   0.00000E+000
   0.00000E+000   0.00000E+000   0.00000E+000   0.00000E+000   0.00000E+000   0.00000E+000   0.00000E+000   0.00000E+000   0.00000E+000
   0.00000E+000   0.00000E+000   0.00000E+000   0.00000E+000   0.00000E+000   0.00000E+000   0.00000E+000   0.00000E+000   0.00000E+000
   0.00000E+000   0.00000E+000   0.00000E+000   0.00000E+000   0.00000E+000   0.00000E+000   0.00000E+000   0.00000E+000   0.00000E+000
   0.00000E+000   0.00000E+000   0.00000E+000   0.00000E+000   0.00000E+000   0.00000E+000   0.00000E+000   0.00000E+000   0.00000E+000
   0.00000E+000   0.00000E+000   0.00000E+000   0.00000E+000   0.00000E+000   0.00000E+000   0.00000E+000   0.00000E+000   0.00000E+000
   0.00000E+000   0.00000E+000   0.00000E+000   0.00000E+000   0.00000E+000   0.00000E+000   0.00000E+000   0.00000E+000   0.00000E+000
   0.00000E+000   0.00000E+000   0.00000E+000   0.00000E+000   0.00000E+000   0.00000E+000   0.00000E+000   0.00000E+000   0.00000E+000
   0.00000E+000   0.00000E+000   0.00000E+000   0.00000E+000   0.00000E+000   0.00000E+000   0.00000E+000   0.00000E+000   0.00000E+000
   0.00000E+000   0.00000E+000   0.00000E+000   0.00000E+000   0.00000E+000   0.00000E+000   0.00000E+000   0.00000E+000   0.00000E+000
   0.00000E+000   0.00000E+000   0.00000E+000   0.00000E+000   0.00000E+000   0.00000E+000   0.00000E+000   0.00000E+000   0.00000E+000
   0.00000E+000   0.00000E+000   0.00000E+000   0.00000E+000   0.00000E+000   0.00000E+000   0.00000E+000   0.00000E+000   0.00000E+000
   0.00000E+000   0.00000E+000   0.00000E+000   0.00000E+000   0.00000E+000   0.00000E+000   0.00000E+000   0.00000E+000   0.00000E+000
   0.00000E+000   0.00000E+000   0.00000E+000   0.00000E+000   0.00000E+000   0.00000E+000   0.00000E+000   0.00000E+000   0.00000E+000
   0.00000E+000   0.00000E+000   0.00000E+000   0.00000E+000   0.00000E+000   0.00000E+000   0.00000E+000   0.00000E+000   0.00000E+000
   0.00000E+000   0.00000E+000   0.00000E+000   0.00000E+000   0.00000E+000   0.00000E+000   0.00000E+000   0.00000E+000   0.00000E+000
   0.00000E+000   0.00000E+000   0.00000E+000   0.00000E+000   0.00000E+000   0.00000E+000   0.00000E+000   0.00000E+000   0.00000E+000
   0.00000E+000   0.00000E+000   0.00000E+000   0.00000E+000   0.00000E+000   0.00000E+000   0.00000E+000   0.00000E+000   0.00000E+000
   0.00000E+000   0.00000E+000   0.00000E+000   0.00000E+000   0.00000E+000   0.00000E+000   0.00000E+000   0.00000E+000   0.00000E+000
   0.00000E+000   0.00000E+000   0.00000E+000   0.00000E+000   0.00000E+000   0.00000E+000   0.00000E+000   0.00000E+000   0.00000E+000
   0.00000E+000   0.00000E+000   0.00000E+000   0.00000E+000   0.00000E+000   0.00000E+000   0.00000E+000   0.00000E+000   0.00000E+000
   0.00000E+000   0.00000E+000   0.00000E+000   0.00000E+000   0.00000E+000   0.00000E+000   0.00000E+000   0.00000E+000   0.00000E+000
   0.00000E+000   0.00000E+000   0.00000E+000   0.00000E+000   0.00000E+000   0.00000E+000   0.00000E+000   0.00000E+000   0.00000E+000
   0.00000E+000   0.00000E+000   0.00000E+000   0.00000E+000   0.00000E+000   0.00000E+000   0.00000E+000   0.00000E+000   0.00000E+000
   0.00000E+000   0.00000E+000   0.00000E+000   0.00000E+000   0.00000E+000   0.00000E+000   0.00000E+000   0.00000E+000   0.00000E+000
   0.00000E+000   0.00000E+000   0.00000E+000   0.00000E+000   0.00000E+000   0.00000E+000   0.00000E+000   0.00000E+000   0.00000E+000
   0.00000E+000   0.00000E+000   0.00000E+000   0.00000E+000   0.00000E+000   0.00000E+000   0.00000E+000   0.00000E+000   0.00000E+000
   0.00000E+000   0.00000E+000   0.00000E+000   0.00000E+000   0.00000E+000   0.00000E+000   0.00000E+000   0.00000E+000   0.00000E+000
   0.00000E+000   0.00000E+000   0.00000E+000   0.00000E+000   0.00000E+000   0.00000E+000   0.00000E+000   0.00000E+000   0.00000E+000
   0.00000E+000   0.00000E+000   0.00000E+000   0.00000E+000   0.00000E+000   0.00000E+000   0.00000E+000   0.00000E+000   0.00000E+000
   0.00000E+000   0.00000E+000   0.00000E+000   0.00000E+000   0.00000E+000   0.00000E+000   0.00000E+000   0.00000E+000   0.00000E+000
   0.00000E+000   0.00000E+000   0.00000E+000   0.00000E+000   0.00000E+000   0.00000E+000   0.00000E+000   0.00000E+000   0.00000E+000
   0.00000E+000   0.00000E+000   0.00000E+000   0.00000E+000   0.00000E+000   0.00000E+000   0.00000E+000   0.00000E+000   0.00000E+000
   0.00000E+000   0.00000E+000   0.00000E+000   0.00000E+000   0.00000E+000   0.00000E+000   0.00000E+000   0.00000E+000   0.00000E+000
   0.00000E+000   0.00000E+000   0.00000E+000   0.00000E+000   0.00000E+000   0.00000E+000   0.00000E+000   0.00000E+000   0.00000E+000
   0.00000E+000   0.00000E+000   0.00000E+000   0.00000E+000   0.00000E+000   0.00000E+000   0.00000E+000   0.00000E+000   0.00000E+000
   0.00000E+000   0.00000E+000   0.00000E+000   0.00000E+000   0.00000E+000   0.00000E+000   0.00000E+000   0.00000E+000   0.00000E+000
   0.00000E+000   0.00000E+000   0.00000E+000   0.00000E+000   0.00000E+000   0.00000E+000   0.00000E+000   0.00000E+000   0.00000E+000
   0.00000E+000   0.00000E+000   0.00000E+000   0.00000E+000   0.00000E+000   0.00000E+000   0.00000E+000   0.00000E+000   0.00000E+000
   0.00000E+000   0.00000E+000   0.00000E+000   0.00000E+000   0.00000E+000   0.00000E+000   0.00000E+000   0.00000E+000   0.00000E+000
   0.00000E+000   0.00000E+000   0.00000E+000   0.00000E+000   0.00000E+000   0.00000E+000   0.00000E+000   0.00000E+000   0.00000E+000
   0.00000E+000   0.00000E+000   0.00000E+000   0.00000E+000   0.00000E+000   0.00000E+000   0.00000E+000   0.00000E+000   0.00000E+000
   0.00000E+000   0.00000E+000   0.00000E+000   0.00000E+000   0.00000E+000   0.00000E+000   0.00000E+000   0.00000E+000   0.00000E+000
   0.00000E+000   0.00000E+000   0.00000E+000   0.00000E+000   0.00000E+000   0.00000E+000   0.00000E+000   0.00000E+000   0.00000E+000
   0.00000E+000   0.00000E+000   0.00000E+000   0.00000E+000   0.00000E+000   0.00000E+000   0.00000E+000   0.00000E+000   0.00000E+000
   0.00000E+000   0.00000E+000   0.00000E+000   0.00000E+000   0.00000E+000   0.00000E+000   0.00000E+000   0.00000E+000   0.00000E+000
   0.00000E+000   0.00000E+000   0.00000E+000   0.00000E+000   0.00000E+000   0.00000E+000   0.00000E+000   0.00000E+000   0.00000E+000
   0.00000E+000   0.00000E+000   0.00000E+000   0.00000E+000   0.00000E+000   0.00000E+000   0.00000E+000   0.00000E+000   0.00000E+000
   0.00000E+000   0.00000E+000   0.00000E+000   0.00000E+000   0.00000E+000   0.00000E+000   0.00000E+000   0.00000E+000   0.00000E+000
   0.00000E+000   0.00000E+000   0.00000E+000   0.00000E+000   0.00000E+000   0.00000E+000   0.00000E+000   0.00000E+000   0.00000E+000
   0.00000E+000   0.00000E+000   0.00000E+000   0.00000E+000   0.00000E+000   0.00000E+000   0.00000E+000   0.00000E+000   0.00000E+000
   0.00000E+000   0.00000E+000   0.00000E+000   0.00000E+000   0.00000E+000   0.00000E+000   0.00000E+000   0.00000E+000   0.00000E+000
   0.00000E+000   0.00000E+000   0.00000E+000   0.00000E+000   0.00000E+000   0.00000E+000   0.00000E+000   0.00000E+000   0.00000E+000
   0.00000E+000   0.00000E+000   0.00000E+000   0.00000E+000   0.00000E+000   0.00000E+000   0.00000E+000   0.00000E+000   0.00000E+000
   0.00000E+000   0.00000E+000   0.00000E+000   0.00000E+000   0.00000E+000   0.00000E+000   0.00000E+000   0.00000E+000   0.00000E+000
   0.00000E+000   0.00000E+000   0.00000E+000   0.00000E+000   0.00000E+000   0.00000E+000   0.00000E+000   0.00000E+000   0.00000E+000
   0.00000E+000   0.00000E+000   0.00000E+000   0.00000E+000   0.00000E+000   0.00000E+000   0.00000E+000   0.00000E+000   0.00000E+000
   0.00000E+000   0.00000E+000   0.00000E+000   0.00000E+000   0.00000E+000   0.00000E+000   0.00000E+000   0.00000E+000   0.00000E+000
   0.00000E+000   0.00000E+000   0.00000E+000   0.00000E+000   0.00000E+000   0.00000E+000   0.00000E+000   0.00000E+000   0.00000E+000
   0.00000E+000   0.00000E+000   0.00000E+000   0.00000E+000   0.00000E+000   0.00000E+000   0.00000E+000   0.00000E+000   0.00000E+000
   0.00000E+000   0.00000E+000   0.00000E+000   0.00000E+000   0.00000E+000   0.00000E+000   0.00000E+000   0.00000E+000   0.00000E+000
   0.00000E+000   0.00000E+000   0.00000E+000   0.00000E+000   0.00000E+000   0.00000E+000   0.00000E+000   0.00000E+000   0.00000E+000
   0.00000E+000   0.00000E+000   0.00000E+000   0.00000E+000   0.00000E+000   0.00000E+000   0.00000E+000   0.00000E+000   0.00000E+000
   0.00000E+000   0.00000E+000   0.00000E+000   0.00000E+000   0.00000E+000   0.00000E+000   0.00000E+000   0.00000E+000   0.00000E+000
   0.00000E+000   0.00000E+000   0.00000E+000   0.00000E+000   0.00000E+000   0.00000E+000   0.00000E+000   0.00000E+000   0.00000E+000
   0.00000E+000   0.00000E+000   0.00000E+000   0.00000E+000   0.00000E+000   0.00000E+000   0.00000E+000   0.00000E+000   0.00000E+000
   0.00000E+000   0.00000E+000   0.00000E+000   0.00000E+000   0.00000E+000   0.00000E+000   0.00000E+000   0.00000E+000   0.00000E+000
   0.00000E+000   0.00000E+000   0.00000E+000   0.00000E+000   0.00000E+000   0.00000E+000   0.00000E+000   0.00000E+000   0.00000E+000
   0.00000E+000   0.00000E+000   0.00000E+000   0.00000E+000   0.00000E+000   0.00000E+000   0.00000E+000   0.00000E+000   0.00000E+000
   0.00000E+000   0.00000E+000   0.00000E+000   0.00000E+000   0.00000E+000   0.00000E+000   0.00000E+000   0.00000E+000   0.00000E+000
   0.00000E+000   0.00000E+000   0.00000E+000   0.00000E+000   0.00000E+000   0.00000E+000   0.00000E+000   0.00000E+000   0.00000E+000
   0.00000E+000   0.00000E+000   0.00000E+000   0.00000E+000   0.00000E+000   0.00000E+000   0.00000E+000   0.00000E+000   0.00000E+000
   0.00000E+000   0.00000E+000   0.00000E+000   0.00000E+000   0.00000E+000   0.00000E+000   0.00000E+000   0.00000E+000   0.00000E+000
   0.00000E+000   0.00000E+000   0.00000E+000   0.00000E+000   0.00000E+000   0.00000E+000   0.00000E+000   0.00000E+000   0.00000E+000
   0.00000E+000   0.00000E+000   0.00000E+000   0.00000E+000   0.00000E+000   0.00000E+000   0.00000E+000   0.00000E+000   0.00000E+000
   0.00000E+000   0.00000E+000   0.00000E+000   0.00000E+000   0.00000E+000   0.00000E+000   0.00000E+000   0.00000E+000   0.00000E+000
   0.00000E+000   0.00000E+000   0.00000E+000   0.00000E+000   0.00000E+000   0.00000E+000   0.00000E+000   0.00000E+000   0.00000E+000
   0.00000E+000   0.00000E+000   0.00000E+000   0.00000E+000   0.00000E+000   0.00000E+000   0.00000E+000   0.00000E+000   0.00000E+000
   0.00000E+000   0.00000E+000   0.00000E+000   0.00000E+000   0.00000E+000   0.00000E+000   0.00000E+000   0.00000E+000   0.00000E+000
   0.00000E+000   0.00000E+000   0.00000E+000   0.00000E+000   0.00000E+000   0.00000E+000   0.00000E+000   0.00000E+000   0.00000E+000
   0.00000E+000   0.00000E+000   0.00000E+000   0.00000E+000   0.00000E+000   0.00000E+000   0.00000E+000   0.00000E+000   0.00000E+000
   0.00000E+000   0.00000E+000   0.00000E+000   0.00000E+000   0.00000E+000   0.00000E+000   0.00000E+000   0.00000E+000   0.00000E+000
   0.00000E+000   0.00000E+000   0.00000E+000   0.00000E+000   0.00000E+000   0.00000E+000   0.00000E+000   0.00000E+000   0.00000E+000
   0.00000E+000   0.00000E+000   0.00000E+000   0.00000E+000   0.00000E+000   0.00000E+000   0.00000E+000   0.00000E+000   0.00000E+000
   0.00000E+000   0.00000E+000   0.00000E+000   0.00000E+000   0.00000E+000   0.00000E+000   0.00000E+000   0.00000E+000   0.00000E+000
   0.00000E+000   0.00000E+000   0.00000E+000   0.00000E+000   0.00000E+000   0.00000E+000   0.00000E+000   0.00000E+000   0.00000E+000
   0.00000E+000   0.00000E+000   0.00000E+000   0.00000E+000   0.00000E+000   0.00000E+000   0.00000E+000   0.00000E+000   0.00000E+000
   0.00000E+000   0.00000E+000   0.00000E+000   0.00000E+000   0.00000E+000   0.00000E+000   0.00000E+000   0.00000E+000   0.00000E+000
   0.00000E+000   0.00000E+000   0.00000E+000   0.00000E+000   0.00000E+000   0.00000E+000   0.00000E+000   0.00000E+000   0.00000E+000
   0.00000E+000   0.00000E+000   0.00000E+000   0.00000E+000   0.00000E+000   0.00000E+000   0.00000E+000   0.00000E+000   0.00000E+000
   0.00000E+000   0.00000E+000   0.00000E+000   0.00000E+000   0.00000E+000   0.00000E+000   0.00000E+000   0.00000E+000   0.00000E+000
   0.00000E+000   0.00000E+000   0.00000E+000   0.00000E+000   0.00000E+000   0.00000E+000   0.00000E+000   0.00000E+000   0.00000E+000
   0.00000E+000   0.00000E+000   0.00000E+000   0.00000E+000   0.00000E+000   0.00000E+000   0.00000E+000   0.00000E+000   0.00000E+000
   0.00000E+000   0.00000E+000   0.00000E+000   0.00000E+000   0.00000E+000   0.00000E+000   0.00000E+000   0.00000E+000   0.00000E+000
   0.00000E+000   0.00000E+000   0.00000E+000   0.00000E+000   0.00000E+000   0.00000E+000   0.00000E+000   0.00000E+000   0.00000E+000
   0.00000E+000   0.00000E+000   0.00000E+000   0.00000E+000   0.00000E+000   0.00000E+000   0.00000E+000   0.00000E+000   0.00000E+000
   0.00000E+000   0.00000E+000   0.00000E+000   0.00000E+000   0.00000E+000   0.00000E+000   0.00000E+000   0.00000E+000   0.00000E+000
   0.00000E+000   0.00000E+000   0.00000E+000   0.00000E+000   0.00000E+000   0.00000E+000   0.00000E+000   0.00000E+000   0.00000E+000
   0.00000E+000   0.00000E+000   0.00000E+000   0.00000E+000   0.00000E+000   0.00000E+000   0.00000E+000   0.00000E+000   0.00000E+000
   0.00000E+000   0.00000E+000   0.00000E+000   0.00000E+000   0.00000E+000   0.00000E+000   0.00000E+000   0.00000E+000   0.00000E+000
   0.00000E+000   0.00000E+000   0.00000E+000   0.00000E+000   0.00000E+000   0.00000E+000   0.00000E+000   0.00000E+000   0.00000E+000
   0.00000E+000   0.00000E+000   0.00000E+000   0.00000E+000   0.00000E+000   0.00000E+000   0.00000E+000   0.00000E+000   0.00000E+000
   0.00000E+000   0.00000E+000   0.00000E+000   0.00000E+000   0.00000E+000   0.00000E+000   0.00000E+000   0.00000E+000   0.00000E+000
   0.00000E+000   0.00000E+000   0.00000E+000   0.00000E+000   0.00000E+000   0.00000E+000   0.00000E+000   0.00000E+000   0.00000E+000
   0.00000E+000   0.00000E+000   0.00000E+000   0.00000E+000   0.00000E+000   0.00000E+000   0.00000E+000   0.00000E+000   0.00000E+000
   0.00000E+000   0.00000E+000   0.00000E+000   0.00000E+000   0.00000E+000   0.00000E+000   0.00000E+000   0.00000E+000   0.00000E+000
   0.00000E+000   0.00000E+000   0.00000E+000   0.00000E+000   0.00000E+000   0.00000E+000   0.00000E+000   0.00000E+000   0.00000E+000
   0.00000E+000   0.00000E+000   0.00000E+000   0.00000E+000   0.00000E+000   0.00000E+000   0.00000E+000   0.00000E+000   0.00000E+000
   0.00000E+000   0.00000E+000   0.00000E+000   0.00000E+000   0.00000E+000   0.00000E+000   0.00000E+000   0.00000E+000   0.00000E+000
   0.00000E+000   0.00000E+000   0.00000E+000   0.00000E+000   0.00000E+000   0.00000E+000   0.00000E+000   0.00000E+000   0.00000E+000
   0.00000E+000   0.00000E+000   0.00000E+000   0.00000E+000   0.00000E+000   0.00000E+000   0.00000E+000   0.00000E+000   0.00000E+000
   0.00000E+000   0.00000E+000   0.00000E+000   0.00000E+000   0.00000E+000   0.00000E+000   0.00000E+000   0.00000E+000   0.00000E+000
   0.00000E+000   0.00000E+000   0.00000E+000   0.00000E+000   0.00000E+000   0.00000E+000   0.00000E+000   0.00000E+000   0.00000E+000
   0.00000E+000   0.00000E+000   0.00000E+000   0.00000E+000   0.00000E+000   0.00000E+000   0.00000E+000   0.00000E+000   0.00000E+000
   0.00000E+000   0.00000E+000   0.00000E+000   0.00000E+000   0.00000E+000   0.00000E+000   0.00000E+000   0.00000E+000   0.00000E+000
   0.00000E+000   0.00000E+000   0.00000E+000   0.00000E+000   0.00000E+000   0.00000E+000   0.00000E+000   0.00000E+000   0.00000E+000
   0.00000E+000   0.00000E+000   0.00000E+000   0.00000E+000   0.00000E+000   0.00000E+000   0.00000E+000   0.00000E+000   0.00000E+000
   0.00000E+000   0.00000E+000   0.00000E+000   0.00000E+000   0.00000E+000   0.00000E+000   0.00000E+000   0.00000E+000   0.00000E+000
   0.00000E+000   0.00000E+000   0.00000E+000   0.00000E+000   0.00000E+000   0.00000E+000   0.00000E+000   0.00000E+000   0.00000E+000
   0.00000E+000   0.00000E+000   0.00000E+000   0.00000E+000   0.00000E+000   0.00000E+000   0.00000E+000   0.00000E+000   0.00000E+000
   0.00000E+000   0.00000E+000   0.00000E+000   0.00000E+000   0.00000E+000   0.00000E+000   0.00000E+000   0.00000E+000   0.00000E+000
   0.00000E+000   0.00000E+000   0.00000E+000   0.00000E+000   0.00000E+000   0.00000E+000   0.00000E+000   0.00000E+000   0.00000E+000
   0.00000E+000   0.00000E+000   0.00000E+000   0.00000E+000   0.00000E+000   0.00000E+000   0.00000E+000   0.00000E+000   0.00000E+000
   0.00000E+000   0.00000E+000   0.00000E+000   0.00000E+000   0.00000E+000   0.00000E+000   0.00000E+000   0.00000E+000   0.00000E+000
   0.00000E+000   0.00000E+000   0.00000E+000   0.00000E+000   0.00000E+000   0.00000E+000   0.00000E+000   0.00000E+000   0.00000E+000
   0.00000E+000   0.00000E+000   0.00000E+000   0.00000E+000   0.00000E+000   0.00000E+000   0.00000E+000   0.00000E+000   0.00000E+000
   0.00000E+000   0.00000E+000   0.00000E+000   0.00000E+000   0.00000E+000   0.00000E+000   0.00000E+000   0.00000E+000   0.00000E+000
   0.00000E+000   0.00000E+000   0.00000E+000   0.00000E+000   0.00000E+000   0.00000E+000   0.00000E+000   0.00000E+000   0.00000E+000
   0.00000E+000   0.00000E+000   0.00000E+000   0.00000E+000   0.00000E+000   0.00000E+000   0.00000E+000   0.00000E+000   0.00000E+000
   0.00000E+000   0.00000E+000   0.00000E+000   0.00000E+000   0.00000E+000   0.00000E+000   0.00000E+000   0.00000E+000   0.00000E+000
   0.00000E+000   0.00000E+000   0.00000E+000   0.00000E+000   0.00000E+000   0.00000E+000   0.00000E+000   0.00000E+000   0.00000E+000
   0.00000E+000   0.00000E+000   0.00000E+000   0.00000E+000   0.00000E+000   0.00000E+000   0.00000E+000   0.00000E+000   0.00000E+000
   0.00000E+000   0.00000E+000   0.00000E+000   0.00000E+000   0.00000E+000   0.00000E+000   0.00000E+000   0.00000E+000   0.00000E+000
   0.00000E+000   0.00000E+000   0.00000E+000   0.00000E+000   0.00000E+000   0.00000E+000   0.00000E+000   0.00000E+000   0.00000E+000
   0.00000E+000   0.00000E+000   0.00000E+000   0.00000E+000   0.00000E+000   0.00000E+000   0.00000E+000   0.00000E+000   0.00000E+000
   0.00000E+000   0.00000E+000   0.00000E+000   0.00000E+000   0.00000E+000   0.00000E+000   0.00000E+000   0.00000E+000   0.00000E+000
   0.00000E+000   0.00000E+000   0.00000E+000   0.00000E+000   0.00000E+000   0.00000E+000   0.00000E+000   0.00000E+000   0.00000E+000
   0.00000E+000   0.00000E+000   0.00000E+000   0.00000E+000   0.00000E+000   0.00000E+000   0.00000E+000   0.00000E+000   0.00000E+000
   0.00000E+000   0.00000E+000   0.00000E+000   0.00000E+000   0.00000E+000   0.00000E+000   0.00000E+000   0.00000E+000   0.00000E+000
   0.00000E+000   0.00000E+000   0.00000E+000   0.00000E+000   0.00000E+000   0.00000E+000   0.00000E+000   0.00000E+000   0.00000E+000
   0.00000E+000   0.00000E+000   0.00000E+000   0.00000E+000   0.00000E+000   0.00000E+000   0.00000E+000   0.00000E+000   0.00000E+000
   0.00000E+000   0.00000E+000   0.00000E+000   0.00000E+000   0.00000E+000   0.00000E+000   0.00000E+000   0.00000E+000   0.00000E+000
   0.00000E+000   0.00000E+000   0.00000E+000   0.00000E+000   0.00000E+000   0.00000E+000   0.00000E+000   0.00000E+000   0.00000E+000
   0.00000E+000   0.00000E+000   0.00000E+000   0.00000E+000   0.00000E+000   0.00000E+000   0.00000E+000   0.00000E+000   0.00000E+000
   0.00000E+000   0.00000E+000   0.00000E+000   0.00000E+000   0.00000E+000   0.00000E+000   0.00000E+000   0.00000E+000   0.00000E+000
   0.00000E+000   0.00000E+000   0.00000E+000   0.00000E+000   0.00000E+000   0.00000E+000   0.00000E+000   0.00000E+000   0.00000E+000
   0.00000E+000   0.00000E+000   0.00000E+000   0.00000E+000   0.00000E+000   0.00000E+000   0.00000E+000   0.00000E+000   0.00000E+000
   0.00000E+000   0.00000E+000   0.00000E+000   0.00000E+000   0.00000E+000   0.00000E+000   0.00000E+000   0.00000E+000   0.00000E+000
   0.00000E+000   0.00000E+000   0.00000E+000   0.00000E+000   0.00000E+000   0.00000E+000   0.00000E+000   0.00000E+000   0.00000E+000
   0.00000E+000   0.00000E+000   0.00000E+000   0.00000E+000   0.00000E+000   0.00000E+000   0.00000E+000   0.00000E+000   0.00000E+000
   0.00000E+000   0.00000E+000   0.00000E+000   0.00000E+000   0.00000E+000   0.00000E+000   0.00000E+000   0.00000E+000   0.00000E+000
   0.00000E+000   0.00000E+000   0.00000E+000   0.00000E+000   0.00000E+000   0.00000E+000   0.00000E+000   0.00000E+000   0.00000E+000
   0.00000E+000   0.00000E+000   0.00000E+000   0.00000E+000   0.00000E+000   0.00000E+000   0.00000E+000   0.00000E+000   0.00000E+000
   0.00000E+000   0.00000E+000   0.00000E+000   0.00000E+000   0.00000E+000   0.00000E+000   0.00000E+000   0.00000E+000   0.00000E+000
   0.00000E+000   0.00000E+000   0.00000E+000   0.00000E+000   0.00000E+000   0.00000E+000   0.00000E+000   0.00000E+000   0.00000E+000
   0.00000E+000   0.00000E+000   0.00000E+000   0.00000E+000   0.00000E+000   0.00000E+000   0.00000E+000   0.00000E+000   0.00000E+000
   0.00000E+000   0.00000E+000   0.00000E+000   0.00000E+000   0.00000E+000   0.00000E+000   0.00000E+000   0.00000E+000   0.00000E+000
   0.00000E+000   0.00000E+000   0.00000E+000   0.00000E+000   0.00000E+000   0.00000E+000   0.00000E+000   0.00000E+000   0.00000E+000
   0.00000E+000   0.00000E+000   0.00000E+000   0.00000E+000   0.00000E+000   0.00000E+000   0.00000E+000   0.00000E+000   0.00000E+000
   0.00000E+000   0.00000E+000   0.00000E+000   0.00000E+000   0.00000E+000   0.00000E+000   0.00000E+000   0.00000E+000   0.00000E+000
   0.00000E+000   0.00000E+000   0.00000E+000   0.00000E+000   0.00000E+000   0.00000E+000   0.00000E+000   0.00000E+000   0.00000E+000
   0.00000E+000   0.00000E+000   0.00000E+000   0.00000E+000   0.00000E+000   0.00000E+000   0.00000E+000   0.00000E+000   0.00000E+000
   0.00000E+000   0.00000E+000   0.00000E+000   0.00000E+000   0.00000E+000   0.00000E+000   0.00000E+000   0.00000E+000   0.00000E+000
   0.00000E+000   0.00000E+000   0.00000E+000   0.00000E+000   0.00000E+000   0.00000E+000   0.00000E+000   0.00000E+000   0.00000E+000
   0.00000E+000   0.00000E+000   0.00000E+000   0.00000E+000   0.00000E+000   0.00000E+000   0.00000E+000   0.00000E+000   0.00000E+000
   0.00000E+000   0.00000E+000   0.00000E+000   0.00000E+000   0.00000E+000   0.00000E+000   0.00000E+000   0.00000E+000   0.00000E+000
   0.00000E+000   0.00000E+000   0.00000E+000   0.00000E+000   0.00000E+000   0.00000E+000   0.00000E+000   0.00000E+000   0.00000E+000
   0.00000E+000   0.00000E+000   0.00000E+000   0.00000E+000   0.00000E+000   0.00000E+000   0.00000E+000   0.00000E+000   0.00000E+000
   0.00000E+000   0.00000E+000   0.00000E+000   0.00000E+000   0.00000E+000   0.00000E+000   0.00000E+000   0.00000E+000   0.00000E+000
   0.00000E+000   0.00000E+000   0.00000E+000   0.00000E+000   0.00000E+000   0.00000E+000   0.00000E+000   0.00000E+000   0.00000E+000
   0.00000E+000   0.00000E+000   0.00000E+000   0.00000E+000   0.00000E+000   0.00000E+000   0.00000E+000   0.00000E+000   0.00000E+000
   0.00000E+000   0.00000E+000   0.00000E+000   0.00000E+000   0.00000E+000   0.00000E+000   0.00000E+000   0.00000E+000   0.00000E+000
   0.00000E+000   0.00000E+000   0.00000E+000   0.00000E+000   0.00000E+000   0.00000E+000   0.00000E+000   0.00000E+000   0.00000E+000
   0.00000E+000   0.00000E+000   0.00000E+000   0.00000E+000   0.00000E+000   0.00000E+000   0.00000E+000   0.00000E+000   0.00000E+000
   0.00000E+000   0.00000E+000   0.00000E+000   0.00000E+000   0.00000E+000   0.00000E+000   0.00000E+000   0.00000E+000   0.00000E+000
   0.00000E+000   0.00000E+000   0.00000E+000   0.00000E+000   0.00000E+000   0.00000E+000   0.00000E+000   0.00000E+000   0.00000E+000
   0.00000E+000   0.00000E+000   0.00000E+000   0.00000E+000   0.00000E+000   0.00000E+000   0.00000E+000   0.00000E+000   0.00000E+000
   0.00000E+000   0.00000E+000   0.00000E+000   0.00000E+000   0.00000E+000   0.00000E+000   0.00000E+000   0.00000E+000   0.00000E+000
   0.00000E+000   0.00000E+000   0.00000E+000   0.00000E+000   0.00000E+000   0.00000E+000   0.00000E+000   0.00000E+000   0.00000E+000
   0.00000E+000   0.00000E+000   0.00000E+000   0.00000E+000   0.00000E+000   0.00000E+000   0.00000E+000   0.00000E+000   0.00000E+000
   0.00000E+000   0.00000E+000   0.00000E+000   0.00000E+000   0.00000E+000   0.00000E+000   0.00000E+000   0.00000E+000   0.00000E+000
   0.00000E+000   0.00000E+000   0.00000E+000   0.00000E+000   0.00000E+000   0.00000E+000   0.00000E+000   0.00000E+000   0.00000E+000
   0.00000E+000   0.00000E+000   0.00000E+000   0.00000E+000   0.00000E+000   0.00000E+000   0.00000E+000   0.00000E+000   0.00000E+000
   0.00000E+000   0.00000E+000   0.00000E+000   0.00000E+000   0.00000E+000   0.00000E+000   0.00000E+000   0.00000E+000   0.00000E+000
   0.00000E+000   0.00000E+000   0.00000E+000   0.00000E+000   0.00000E+000   0.00000E+000   0.00000E+000   0.00000E+000   0.00000E+000
   0.00000E+000   0.00000E+000   0.00000E+000   0.00000E+000   0.00000E+000   0.00000E+000   0.00000E+000   0.00000E+000   0.00000E+000
   0.00000E+000   0.00000E+000   0.00000E+000   0.00000E+000   0.00000E+000   0.00000E+000   0.00000E+000   0.00000E+000   0.00000E+000
   0.00000E+000   0.00000E+000   0.00000E+000   0.00000E+000   0.00000E+000   0.00000E+000   0.00000E+000   0.00000E+000   0.00000E+000
   0.00000E+000   0.00000E+000   0.00000E+000   0.00000E+000   0.00000E+000   0.00000E+000   0.00000E+000   0.00000E+000   0.00000E+000
   0.00000E+000   0.00000E+000   0.00000E+000   0.00000E+000   0.00000E+000   0.00000E+000   0.00000E+000   0.00000E+000   0.00000E+000
   0.00000E+000   0.00000E+000   0.00000E+000   0.00000E+000   0.00000E+000   0.00000E+000   0.00000E+000   0.00000E+000   0.00000E+000
   0.00000E+000   0.00000E+000   0.00000E+000   0.00000E+000   0.00000E+000   0.00000E+000   0.00000E+000   0.00000E+000   0.00000E+000
   0.00000E+000   0.00000E+000   0.00000E+000   0.00000E+000   0.00000E+000   0.00000E+000   0.00000E+000   0.00000E+000   0.00000E+000
   0.00000E+000   0.00000E+000   0.00000E+000   0.00000E+000   0.00000E+000   0.00000E+000   0.00000E+000   0.00000E+000   0.00000E+000
   0.00000E+000   0.00000E+000   0.00000E+000   0.00000E+000   0.00000E+000   0.00000E+000   0.00000E+000   0.00000E+000   0.00000E+000
   0.00000E+000   0.00000E+000   0.00000E+000   0.00000E+000   0.00000E+000   0.00000E+000   0.00000E+000   0.00000E+000   0.00000E+000
   0.00000E+000   0.00000E+000   0.00000E+000   0.00000E+000   0.00000E+000   0.00000E+000   0.00000E+000   0.00000E+000   0.00000E+000
   0.00000E+000   0.00000E+000   0.00000E+000   0.00000E+000   0.00000E+000   0.00000E+000   0.00000E+000   0.00000E+000   0.00000E+000
   0.00000E+000   0.00000E+000   0.00000E+000   0.00000E+000   0.00000E+000   0.00000E+000   0.00000E+000   0.00000E+000   0.00000E+000
   0.00000E+000   0.00000E+000   0.00000E+000   0.00000E+000   0.00000E+000   0.00000E+000   0.00000E+000   0.00000E+000   0.00000E+000
   0.00000E+000   0.00000E+000   0.00000E+000   0.00000E+000   0.00000E+000   0.00000E+000   0.00000E+000   0.00000E+000   0.00000E+000
   0.00000E+000   0.00000E+000   0.00000E+000   0.00000E+000   0.00000E+000   0.00000E+000   0.00000E+000   0.00000E+000   0.00000E+000
   0.00000E+000   0.00000E+000   0.00000E+000   0.00000E+000   0.00000E+000   0.00000E+000   0.00000E+000   0.00000E+000   0.00000E+000
   0.00000E+000   0.00000E+000   0.00000E+000   0.00000E+000   0.00000E+000   0.00000E+000   0.00000E+000   0.00000E+000   0.00000E+000
   0.00000E+000   0.00000E+000   0.00000E+000   0.00000E+000   0.00000E+000   0.00000E+000   0.00000E+000   0.00000E+000   0.00000E+000
   0.00000E+000   0.00000E+000   0.00000E+000   0.00000E+000   0.00000E+000   0.00000E+000   0.00000E+000   0.00000E+000   0.00000E+000
   0.00000E+000   0.00000E+000   0.00000E+000   0.00000E+000   0.00000E+000   0.00000E+000   0.00000E+000   0.00000E+000   0.00000E+000
   0.00000E+000   0.00000E+000   0.00000E+000   0.00000E+000   0.00000E+000   0.00000E+000   0.00000E+000   0.00000E+000   0.00000E+000
   0.00000E+000   0.00000E+000   0.00000E+000   0.00000E+000   0.00000E+000   0.00000E+000   0.00000E+000   0.00000E+000   0.00000E+000
   0.00000E+000   0.00000E+000   0.00000E+000   0.00000E+000   0.00000E+000   0.00000E+000   0.00000E+000   0.00000E+000   0.00000E+000
   0.00000E+000   0.00000E+000   0.00000E+000   0.00000E+000   0.00000E+000   0.00000E+000   0.00000E+000   0.00000E+000   0.00000E+000
TENSORS stressE         double
   0.63920E-002   0.00000E+000   0.00000E+000   0.00000E+000   0.63920E-002   0.00000E+000   0.00000E+000   0.00000E+000   0.63920E-002
   0.73470E-002   0.00000E+000   0.00000E+000   0.00000E+000   0.73470E-002   0.00000E+000   0.00000E+000   0.00000E+000   0.73470E-002
   0.72680E-002   0.00000E+000   0.00000E+000   0.00000E+000   0.72680E-002   0.00000E+000   0.00000E+000   0.00000E+000   0.72680E-002
   0.64910E-002   0.00000E+000   0.00000E+000   0.00000E+000   0.64910E-002   0.00000E+000   0.00000E+000   0.00000E+000   0.64910E-002
   0.73090E-002   0.00000E+000   0.00000E+000   0.00000E+000   0.73090E-002   0.00000E+000   0.00000E+000   0.00000E+000   0.73090E-002
   0.61910E-002   0.00000E+000   0.00000E+000   0.00000E+000   0.61910E-002   0.00000E+000   0.00000E+000   0.00000E+000   0.61910E-002
   0.56280E-002   0.00000E+000   0.00000E+000   0.00000E+000   0.56280E-002   0.00000E+000   0.00000E+000   0.00000E+000   0.56280E-002
   0.10000E-001   0.00000E+000   0.00000E+000   0.00000E+000   0.10000E-001   0.00000E+000   0.00000E+000   0.00000E+000   0.10000E-001
   0.10000E-001   0.00000E+000   0.00000E+000   0.00000E+000   0.10000E-001   0.00000E+000   0.00000E+000   0.00000E+000   0.10000E-001
   0.91190E-002   0.00000E+000   0.00000E+000   0.00000E+000   0.91190E-002   0.00000E+000   0.00000E+000   0.00000E+000   0.91190E-002
   0.10000E-001   0.00000E+000   0.00000E+000   0.00000E+000   0.10000E-001   0.00000E+000   0.00000E+000   0.00000E+000   0.10000E-001
   0.63720E-002   0.00000E+000   0.00000E+000   0.00000E+000   0.63720E-002   0.00000E+000   0.00000E+000   0.00000E+000   0.63720E-002
   0.63540E-002   0.00000E+000   0.00000E+000   0.00000E+000   0.63540E-002   0.00000E+000   0.00000E+000   0.00000E+000   0.63540E-002
   0.70650E-002   0.00000E+000   0.00000E+000   0.00000E+000   0.70650E-002   0.00000E+000   0.00000E+000   0.00000E+000   0.70650E-002
   0.63980E-002   0.00000E+000   0.00000E+000   0.00000E+000   0.63980E-002   0.00000E+000   0.00000E+000   0.00000E+000   0.63980E-002
   0.60000E-002   0.00000E+000   0.00000E+000   0.00000E+000   0.60000E-002   0.00000E+000   0.00000E+000   0.00000E+000   0.60000E-002
   0.55240E-002   0.00000E+000   0.00000E+000   0.00000E+000   0.55240E-002   0.00000E+000   0.00000E+000   0.00000E+000   0.55240E-002
   0.73580E-002   0.00000E+000   0.00000E+000   0.00000E+000   0.73580E-002   0.00000E+000   0.00000E+000   0.00000E+000   0.73580E-002
   0.72750E-002   0.00000E+000   0.00000E+000   0.00000E+000   0.72750E-002   0.00000E+000   0.00000E+000   0.00000E+000   0.72750E-002
   0.80900E-002   0.00000E+000   0.00000E+000   0.00000E+000   0.80900E-002   0.00000E+000   0.00000E+000   0.00000E+000   0.80900E-002
   0.80310E-002   0.00000E+000   0.00000E+000   0.00000E+000   0.80310E-002   0.00000E+000   0.00000E+000   0.00000E+000   0.80310E-002
   0.71520E-002   0.00000E+000   0.00000E+000   0.00000E+000   0.71520E-002   0.00000E+000   0.00000E+000   0.00000E+000   0.71520E-002
   0.86900E-002   0.00000E+000   0.00000E+000   0.00000E+000   0.86900E-002   0.00000E+000   0.00000E+000   0.00000E+000   0.86900E-002
   0.85790E-002   0.00000E+000   0.00000E+000   0.00000E+000   0.85790E-002   0.00000E+000   0.00000E+000   0.00000E+000   0.85790E-002
   0.72210E-002   0.00000E+000   0.00000E+000   0.00000E+000   0.72210E-002   0.00000E+000   0.00000E+000   0.00000E+000   0.72210E-002
   0.64510E-002   0.00000E+000   0.00000E+000   0.00000E+000   0.64510E-002   0.00000E+000   0.00000E+000   0.00000E+000   0.64510E-002
   0.32900E-002   0.00000E+000   0.00000E+000   0.00000E+000   0.32900E-002   0.00000E+000   0.00000E+000   0.00000E+000   0.32900E-002
   0.39280E-002   0.00000E+000   0.00000E+000   0.00000E+000   0.39280E-002   0.00000E+000   0.00000E+000   0.00000E+000   0.39280E-002
   0.37610E-002   0.00000E+000   0.00000E+000   0.00000E+000   0.37610E-002   0.00000E+000   0.00000E+000   0.00000E+000   0.37610E-002
   0.35430E-002   0.00000E+000   0.00000E+000   0.00000E+000   0.35430E-002   0.00000E+000   0.00000E+000   0.00000E+000   0.35430E-002
   0.44070E-002   0.00000E+000   0.00000E+000   0.00000E+000   0.44070E-002   0.00000E+000   0.00000E+000   0.00000E+000   0.44070E-002
   0.35020E-002   0.00000E+000   0.00000E+000   0.00000E+000   0.35020E-002   0.00000E+000   0.00000E+000   0.00000E+000   0.35020E-002
   0.27040E-002   0.00000E+000   0.00000E+000   0.00000E+000   0.27040E-002   0.00000E+000   0.00000E+000   0.00000E+000   0.27040E-002
   0.27810E-002   0.00000E+000   0.00000E+000   0.00000E+000   0.27810E-002   0.00000E+000   0.00000E+000   0.00000E+000   0.27810E-002
   0.36090E-002   0.00000E+000   0.00000E+000   0.00000E+000   0.36090E-002   0.00000E+000   0.00000E+000   0.00000E+000   0.36090E-002
   0.33730E-002   0.00000E+000   0.00000E+000   0.00000E+000   0.33730E-002   0.00000E+000   0.00000E+000   0.00000E+000   0.33730E-002
   0.30260E-002   0.00000E+000   0.00000E+000   0.00000E+000   0.30260E-002   0.00000E+000   0.00000E+000   0.00000E+000   0.30260E-002
   0.40990E-002   0.00000E+000   0.00000E+000   0.00000E+000   0.40990E-002   0.00000E+000   0.00000E+000   0.00000E+000   0.40990E-002
   0.47810E-002   0.00000E+000   0.00000E+000   0.00000E+000   0.47810E-002   0.00000E+000   0.00000E+000   0.00000E+000   0.47810E-002
   0.42520E-002   0.00000E+000   0.00000E+000   0.00000E+000   0.42520E-002   0.00000E+000   0.00000E+000   0.00000E+000   0.42520E-002
   0.34940E-002   0.00000E+000   0.00000E+000   0.00000E+000   0.34940E-002   0.00000E+000   0.00000E+000   0.00000E+000   0.34940E-002
   0.26980E-002   0.00000E+000   0.00000E+000   0.00000E+000   0.26980E-002   0.00000E+000   0.00000E+000   0.00000E+000   0.26980E-002
   0.26720E-002   0.00000E+000   0.00000E+000   0.00000E+000   0.26720E-002   0.00000E+000   0.00000E+000   0.00000E+000   0.26720E-002
   0.49730E-002   0.00000E+000   0.00000E+000   0.00000E+000   0.49730E-002   0.00000E+000   0.00000E+000   0.00000E+000   0.49730E-002
   0.58090E-002   0.00000E+000   0.00000E+000   0.00000E+000   0.58090E-002   0.00000E+000   0.00000E+000   0.00000E+000   0.58090E-002
   0.55630E-002   0.00000E+000   0.00000E+000   0.00000E+000   0.55630E-002   0.00000E+000   0.00000E+000   0.00000E+000   0.55630E-002
   0.53070E-002   0.00000E+000   0.00000E+000   0.00000E+000   0.53070E-002   0.00000E+000   0.00000E+000   0.00000E+000   0.53070E-002
   0.55580E-002   0.00000E+000   0.00000E+000   0.00000E+000   0.55580E-002   0.00000E+000   0.00000E+000   0.00000E+000   0.55580E-002
   0.56650E-002   0.00000E+000   0.00000E+000   0.00000E+000   0.56650E-002   0.00000E+000   0.00000E+000   0.00000E+000   0.56650E-002
   0.44640E-002   0.00000E+000   0.00000E+000   0.00000E+000   0.44640E-002   0.00000E+000   0.00000E+000   0.00000E+000   0.44640E-002
   0.55420E-002   0.00000E+000   0.00000E+000   0.00000E+000   0.55420E-002   0.00000E+000   0.00000E+000   0.00000E+000   0.55420E-002
   0.49680E-002   0.00000E+000   0.00000E+000   0.00000E+000   0.49680E-002   0.00000E+000   0.00000E+000   0.00000E+000   0.49680E-002
   0.42290E-002   0.00000E+000   0.00000E+000   0.00000E+000   0.42290E-002   0.00000E+000   0.00000E+000   0.00000E+000   0.42290E-002
   0.45560E-002   0.00000E+000   0.00000E+000   0.00000E+000   0.45560E-002   0.00000E+000   0.00000E+000   0.00000E+000   0.45560E-002
   0.54390E-002   0.00000E+000   0.00000E+000   0.00000E+000   0.54390E-002   0.00000E+000   0.00000E+000   0.00000E+000   0.54390E-002
   0.43860E-002   0.00000E+000   0.00000E+000   0.00000E+000   0.43860E-002   0.00000E+000   0.00000E+000   0.00000E+000   0.43860E-002
   0.42510E-002   0.00000E+000   0.00000E+000   0.00000E+000   0.42510E-002   0.00000E+000   0.00000E+000   0.00000E+000   0.42510E-002
   0.51260E-002   0.00000E+000   0.00000E+000   0.00000E+000   0.51260E-002   0.00000E+000   0.00000E+000   0.00000E+000   0.51260E-002
   0.46740E-002   0.00000E+000   0.00000E+000   0.00000E+000   0.46740E-002   0.00000E+000   0.00000E+000   0.00000E+000   0.46740E-002
   0.45150E-002   0.00000E+000   0.00000E+000   0.00000E+000   0.45150E-002   0.00000E+000   0.00000E+000   0.00000E+000   0.45150E-002
   0.54160E-002   0.00000E+000   0.00000E+000   0.00000E+000   0.54160E-002   0.00000E+000   0.00000E+000   0.00000E+000   0.54160E-002
   0.51940E-002   0.00000E+000   0.00000E+000   0.00000E+000   0.51940E-002   0.00000E+000   0.00000E+000   0.00000E+000   0.51940E-002
   0.57340E-002   0.00000E+000   0.00000E+000   0.00000E+000   0.57340E-002   0.00000E+000   0.00000E+000   0.00000E+000   0.57340E-002
   0.25900E-002   0.00000E+000   0.00000E+000   0.00000E+000   0.25900E-002   0.00000E+000   0.00000E+000   0.00000E+000   0.25900E-002
   0.18700E-002   0.00000E+000   0.00000E+000   0.00000E+000   0.18700E-002   0.00000E+000   0.00000E+000   0.00000E+000   0.18700E-002
   0.19940E-002   0.00000E+000   0.00000E+000   0.00000E+000   0.19940E-002   0.00000E+000   0.00000E+000   0.00000E+000   0.19940E-002
   0.22640E-002   0.00000E+000   0.00000E+000   0.00000E+000   0.22640E-002   0.00000E+000   0.00000E+000   0.00000E+000   0.22640E-002
   0.10030E-002   0.00000E+000   0.00000E+000   0.00000E+000   0.10030E-002   0.00000E+000   0.00000E+000   0.00000E+000   0.10030E-002
   0.19840E-002   0.00000E+000   0.00000E+000   0.00000E+000   0.19840E-002   0.00000E+000   0.00000E+000   0.00000E+000   0.19840E-002
   0.13170E-002   0.00000E+000   0.00000E+000   0.00000E+000   0.13170E-002   0.00000E+000   0.00000E+000   0.00000E+000   0.13170E-002
   0.13730E-002   0.00000E+000   0.00000E+000   0.00000E+000   0.13730E-002   0.00000E+000   0.00000E+000   0.00000E+000   0.13730E-002
   0.22170E-002   0.00000E+000   0.00000E+000   0.00000E+000   0.22170E-002   0.00000E+000   0.00000E+000   0.00000E+000   0.22170E-002
   0.13330E-002   0.00000E+000   0.00000E+000   0.00000E+000   0.13330E-002   0.00000E+000   0.00000E+000   0.00000E+000   0.13330E-002
   0.21550E-002   0.00000E+000   0.00000E+000   0.00000E+000   0.21550E-002   0.00000E+000   0.00000E+000   0.00000E+000   0.21550E-002
   0.20440E-002   0.00000E+000   0.00000E+000   0.00000E+000   0.20440E-002   0.00000E+000   0.00000E+000   0.00000E+000   0.20440E-002
   0.13590E-002   0.00000E+000   0.00000E+000   0.00000E+000   0.13590E-002   0.00000E+000   0.00000E+000   0.00000E+000   0.13590E-002
   0.20360E-002   0.00000E+000   0.00000E+000   0.00000E+000   0.20360E-002   0.00000E+000   0.00000E+000   0.00000E+000   0.20360E-002
   0.19820E-002   0.00000E+000   0.00000E+000   0.00000E+000   0.19820E-002   0.00000E+000   0.00000E+000   0.00000E+000   0.19820E-002
   0.26830E-002   0.00000E+000   0.00000E+000   0.00000E+000   0.26830E-002   0.00000E+000   0.00000E+000   0.00000E+000   0.26830E-002
   0.13230E-002   0.00000E+000   0.00000E+000   0.00000E+000   0.13230E-002   0.00000E+000   0.00000E+000   0.00000E+000   0.13230E-002
   0.19940E-002   0.00000E+000   0.00000E+000   0.00000E+000   0.19940E-002   0.00000E+000   0.00000E+000   0.00000E+000   0.19940E-002
   0.28160E-002   0.00000E+000   0.00000E+000   0.00000E+000   0.28160E-002   0.00000E+000   0.00000E+000   0.00000E+000   0.28160E-002
   0.27730E-002   0.00000E+000   0.00000E+000   0.00000E+000   0.27730E-002   0.00000E+000   0.00000E+000   0.00000E+000   0.27730E-002
   0.00000E+000   0.00000E+000   0.00000E+000   0.00000E+000   0.00000E+000   0.00000E+000   0.00000E+000   0.00000E+000   0.00000E+000
   0.59800E-003   0.00000E+000   0.00000E+000   0.00000E+000   0.59800E-003   0.00000E+000   0.00000E+000   0.00000E+000   0.59800E-003
   0.68500E-003   0.00000E+000   0.00000E+000   0.00000E+000   0.68500E-003   0.00000E+000   0.00000E+000   0.00000E+000   0.68500E-003
   0.71600E-003   0.00000E+000   0.00000E+000   0.00000E+000   0.71600E-003   0.00000E+000   0.00000E+000   0.00000E+000   0.71600E-003
   0.12880E-002   0.00000E+000   0.00000E+000   0.00000E+000   0.12880E-002   0.00000E+000   0.00000E+000   0.00000E+000   0.12880E-002
   0.68900E-003   0.00000E+000   0.00000E+000   0.00000E+000   0.68900E-003   0.00000E+000   0.00000E+000   0.00000E+000   0.68900E-003
   0.61600E-003   0.00000E+000   0.00000E+000   0.00000E+000   0.61600E-003   0.00000E+000   0.00000E+000   0.00000E+000   0.61600E-003
   0.10490E-002   0.00000E+000   0.00000E+000   0.00000E+000   0.10490E-002   0.00000E+000   0.00000E+000   0.00000E+000   0.10490E-002
   0.80900E-003   0.00000E+000   0.00000E+000   0.00000E+000   0.80900E-003   0.00000E+000   0.00000E+000   0.00000E+000   0.80900E-003
   0.65400E-003   0.00000E+000   0.00000E+000   0.00000E+000   0.65400E-003   0.00000E+000   0.00000E+000   0.00000E+000   0.65400E-003
   0.14620E-002   0.00000E+000   0.00000E+000   0.00000E+000   0.14620E-002   0.00000E+000   0.00000E+000   0.00000E+000   0.14620E-002
   0.13460E-002   0.00000E+000   0.00000E+000   0.00000E+000   0.13460E-002   0.00000E+000   0.00000E+000   0.00000E+000   0.13460E-002
   0.78880E-002   0.00000E+000   0.00000E+000   0.00000E+000   0.78880E-002   0.00000E+000   0.00000E+000   0.00000E+000   0.78880E-002
   0.80180E-002   0.00000E+000   0.00000E+000   0.00000E+000   0.80180E-002   0.00000E+000   0.00000E+000   0.00000E+000   0.80180E-002
   0.73260E-002   0.00000E+000   0.00000E+000   0.00000E+000   0.73260E-002   0.00000E+000   0.00000E+000   0.00000E+000   0.73260E-002
   0.36600E-002   0.00000E+000   0.00000E+000   0.00000E+000   0.36600E-002   0.00000E+000   0.00000E+000   0.00000E+000   0.36600E-002
   0.34350E-002   0.00000E+000   0.00000E+000   0.00000E+000   0.34350E-002   0.00000E+000   0.00000E+000   0.00000E+000   0.34350E-002
   0.30670E-002   0.00000E+000   0.00000E+000   0.00000E+000   0.30670E-002   0.00000E+000   0.00000E+000   0.00000E+000   0.30670E-002
   0.37690E-002   0.00000E+000   0.00000E+000   0.00000E+000   0.37690E-002   0.00000E+000   0.00000E+000   0.00000E+000   0.37690E-002
   0.44010E-002   0.00000E+000   0.00000E+000   0.00000E+000   0.44010E-002   0.00000E+000   0.00000E+000   0.00000E+000   0.44010E-002
   0.46060E-002   0.00000E+000   0.00000E+000   0.00000E+000   0.46060E-002   0.00000E+000   0.00000E+000   0.00000E+000   0.46060E-002
   0.46230E-002   0.00000E+000   0.00000E+000   0.00000E+000   0.46230E-002   0.00000E+000   0.00000E+000   0.00000E+000   0.46230E-002
   0.33460E-002   0.00000E+000   0.00000E+000   0.00000E+000   0.33460E-002   0.00000E+000   0.00000E+000   0.00000E+000   0.33460E-002
   0.35990E-002   0.00000E+000   0.00000E+000   0.00000E+000   0.35990E-002   0.00000E+000   0.00000E+000   0.00000E+000   0.35990E-002
   0.36990E-002   0.00000E+000   0.00000E+000   0.00000E+000   0.36990E-002   0.00000E+000   0.00000E+000   0.00000E+000   0.36990E-002
   0.37450E-002   0.00000E+000   0.00000E+000   0.00000E+000   0.37450E-002   0.00000E+000   0.00000E+000   0.00000E+000   0.37450E-002
   0.44810E-002   0.00000E+000   0.00000E+000   0.00000E+000   0.44810E-002   0.00000E+000   0.00000E+000   0.00000E+000   0.44810E-002
   0.11760E-002   0.00000E+000   0.00000E+000   0.00000E+000   0.11760E-002   0.00000E+000   0.00000E+000   0.00000E+000   0.11760E-002
   0.18290E-002   0.00000E+000   0.00000E+000   0.00000E+000   0.18290E-002   0.00000E+000   0.00000E+000   0.00000E+000   0.18290E-002
   0.90400E-003   0.00000E+000   0.00000E+000   0.00000E+000   0.90400E-003   0.00000E+000   0.00000E+000   0.00000E+000   0.90400E-003
   0.18140E-002   0.00000E+000   0.00000E+000   0.00000E+000   0.18140E-002   0.00000E+000   0.00000E+000   0.00000E+000   0.18140E-002
   0.85240E-002   0.00000E+000   0.00000E+000   0.00000E+000   0.85240E-002   0.00000E+000   0.00000E+000   0.00000E+000   0.85240E-002
   0.91910E-002   0.00000E+000   0.00000E+000   0.00000E+000   0.91910E-002   0.00000E+000   0.00000E+000   0.00000E+000   0.91910E-002
   0.86720E-002   0.00000E+000   0.00000E+000   0.00000E+000   0.86720E-002   0.00000E+000   0.00000E+000   0.00000E+000   0.86720E-002
   0.85800E-002   0.00000E+000   0.00000E+000   0.00000E+000   0.85800E-002   0.00000E+000   0.00000E+000   0.00000E+000   0.85800E-002
   0.58190E-002   0.00000E+000   0.00000E+000   0.00000E+000   0.58190E-002   0.00000E+000   0.00000E+000   0.00000E+000   0.58190E-002
   0.56650E-002   0.00000E+000   0.00000E+000   0.00000E+000   0.56650E-002   0.00000E+000   0.00000E+000   0.00000E+000   0.56650E-002
   0.60350E-002   0.00000E+000   0.00000E+000   0.00000E+000   0.60350E-002   0.00000E+000   0.00000E+000   0.00000E+000   0.60350E-002
   0.65120E-002   0.00000E+000   0.00000E+000   0.00000E+000   0.65120E-002   0.00000E+000   0.00000E+000   0.00000E+000   0.65120E-002
   0.91130E-002   0.00000E+000   0.00000E+000   0.00000E+000   0.91130E-002   0.00000E+000   0.00000E+000   0.00000E+000   0.91130E-002
   0.79960E-002   0.00000E+000   0.00000E+000   0.00000E+000   0.79960E-002   0.00000E+000   0.00000E+000   0.00000E+000   0.79960E-002
   0.78680E-002   0.00000E+000   0.00000E+000   0.00000E+000   0.78680E-002   0.00000E+000   0.00000E+000   0.00000E+000   0.78680E-002
   0.83800E-002   0.00000E+000   0.00000E+000   0.00000E+000   0.83800E-002   0.00000E+000   0.00000E+000   0.00000E+000   0.83800E-002
   0.81210E-002   0.00000E+000   0.00000E+000   0.00000E+000   0.81210E-002   0.00000E+000   0.00000E+000   0.00000E+000   0.81210E-002
   0.87910E-002   0.00000E+000   0.00000E+000   0.00000E+000   0.87910E-002   0.00000E+000   0.00000E+000   0.00000E+000   0.87910E-002
   0.90950E-002   0.00000E+000   0.00000E+000   0.00000E+000   0.90950E-002   0.00000E+000   0.00000E+000   0.00000E+000   0.90950E-002
   0.62930E-002   0.00000E+000   0.00000E+000   0.00000E+000   0.62930E-002   0.00000E+000   0.00000E+000   0.00000E+000   0.62930E-002
   0.75740E-002   0.00000E+000   0.00000E+000   0.00000E+000   0.75740E-002   0.00000E+000   0.00000E+000   0.00000E+000   0.75740E-002
   0.69680E-002   0.00000E+000   0.00000E+000   0.00000E+000   0.69680E-002   0.00000E+000   0.00000E+000   0.00000E+000   0.69680E-002
   0.69810E-002   0.00000E+000   0.00000E+000   0.00000E+000   0.69810E-002   0.00000E+000   0.00000E+000   0.00000E+000   0.69810E-002
   0.64010E-002   0.00000E+000   0.00000E+000   0.00000E+000   0.64010E-002   0.00000E+000   0.00000E+000   0.00000E+000   0.64010E-002
   0.65770E-002   0.00000E+000   0.00000E+000   0.00000E+000   0.65770E-002   0.00000E+000   0.00000E+000   0.00000E+000   0.65770E-002
   0.62880E-002   0.00000E+000   0.00000E+000   0.00000E+000   0.62880E-002   0.00000E+000   0.00000E+000   0.00000E+000   0.62880E-002
   0.68590E-002   0.00000E+000   0.00000E+000   0.00000E+000   0.68590E-002   0.00000E+000   0.00000E+000   0.00000E+000   0.68590E-002
   0.62460E-002   0.00000E+000   0.00000E+000   0.00000E+000   0.62460E-002   0.00000E+000   0.00000E+000   0.00000E+000   0.62460E-002
   0.65610E-002   0.00000E+000   0.00000E+000   0.00000E+000   0.65610E-002   0.00000E+000   0.00000E+000   0.00000E+000   0.65610E-002
   0.46590E-002   0.00000E+000   0.00000E+000   0.00000E+000   0.46590E-002   0.00000E+000   0.00000E+000   0.00000E+000   0.46590E-002
   0.54230E-002   0.00000E+000   0.00000E+000   0.00000E+000   0.54230E-002   0.00000E+000   0.00000E+000   0.00000E+000   0.54230E-002
   0.11820E-002   0.00000E+000   0.00000E+000   0.00000E+000   0.11820E-002   0.00000E+000   0.00000E+000   0.00000E+000   0.11820E-002
   0.00000E+000   0.00000E+000   0.00000E+000   0.00000E+000   0.00000E+000   0.00000E+000   0.00000E+000   0.00000E+000   0.00000E+000
   0.90100E-003   0.00000E+000   0.00000E+000   0.00000E+000   0.90100E-003   0.00000E+000   0.00000E+000   0.00000E+000   0.90100E-003
   0.79300E-002   0.00000E+000   0.00000E+000   0.00000E+000   0.79300E-002   0.00000E+000   0.00000E+000   0.00000E+000   0.79300E-002
   0.71390E-002   0.00000E+000   0.00000E+000   0.00000E+000   0.71390E-002   0.00000E+000   0.00000E+000   0.00000E+000   0.71390E-002
   0.91770E-002   0.00000E+000   0.00000E+000   0.00000E+000   0.91770E-002   0.00000E+000   0.00000E+000   0.00000E+000   0.91770E-002
   0.85290E-002   0.00000E+000   0.00000E+000   0.00000E+000   0.85290E-002   0.00000E+000   0.00000E+000   0.00000E+000   0.85290E-002
   0.93140E-002   0.00000E+000   0.00000E+000   0.00000E+000   0.93140E-002   0.00000E+000   0.00000E+000   0.00000E+000   0.93140E-002
   0.65840E-002   0.00000E+000   0.00000E+000   0.00000E+000   0.65840E-002   0.00000E+000   0.00000E+000   0.00000E+000   0.65840E-002
   0.73530E-002   0.00000E+000   0.00000E+000   0.00000E+000   0.73530E-002   0.00000E+000   0.00000E+000   0.00000E+000   0.73530E-002
   0.64410E-002   0.00000E+000   0.00000E+000   0.00000E+000   0.64410E-002   0.00000E+000   0.00000E+000   0.00000E+000   0.64410E-002
   0.73480E-002   0.00000E+000   0.00000E+000   0.00000E+000   0.73480E-002   0.00000E+000   0.00000E+000   0.00000E+000   0.73480E-002
   0.36250E-002   0.00000E+000   0.00000E+000   0.00000E+000   0.36250E-002   0.00000E+000   0.00000E+000   0.00000E+000   0.36250E-002
   0.41670E-002   0.00000E+000   0.00000E+000   0.00000E+000   0.41670E-002   0.00000E+000   0.00000E+000   0.00000E+000   0.41670E-002
   0.48860E-002   0.00000E+000   0.00000E+000   0.00000E+000   0.48860E-002   0.00000E+000   0.00000E+000   0.00000E+000   0.48860E-002
   0.51920E-002   0.00000E+000   0.00000E+000   0.00000E+000   0.51920E-002   0.00000E+000   0.00000E+000   0.00000E+000   0.51920E-002
   0.83570E-002   0.00000E+000   0.00000E+000   0.00000E+000   0.83570E-002   0.00000E+000   0.00000E+000   0.00000E+000   0.83570E-002
   0.83880E-002   0.00000E+000   0.00000E+000   0.00000E+000   0.83880E-002   0.00000E+000   0.00000E+000   0.00000E+000   0.83880E-002
   0.35170E-002   0.00000E+000   0.00000E+000   0.00000E+000   0.35170E-002   0.00000E+000   0.00000E+000   0.00000E+000   0.35170E-002
   0.37650E-002   0.00000E+000   0.00000E+000   0.00000E+000   0.37650E-002   0.00000E+000   0.00000E+000   0.00000E+000   0.37650E-002
   0.34590E-002   0.00000E+000   0.00000E+000   0.00000E+000   0.34590E-002   0.00000E+000   0.00000E+000   0.00000E+000   0.34590E-002
   0.40570E-002   0.00000E+000   0.00000E+000   0.00000E+000   0.40570E-002   0.00000E+000   0.00000E+000   0.00000E+000   0.40570E-002
   0.94490E-002   0.00000E+000   0.00000E+000   0.00000E+000   0.94490E-002   0.00000E+000   0.00000E+000   0.00000E+000   0.94490E-002
   0.10000E-001   0.00000E+000   0.00000E+000   0.00000E+000   0.10000E-001   0.00000E+000   0.00000E+000   0.00000E+000   0.10000E-001
   0.90890E-002   0.00000E+000   0.00000E+000   0.00000E+000   0.90890E-002   0.00000E+000   0.00000E+000   0.00000E+000   0.90890E-002
   0.10000E-001   0.00000E+000   0.00000E+000   0.00000E+000   0.10000E-001   0.00000E+000   0.00000E+000   0.00000E+000   0.10000E-001
   0.80760E-002   0.00000E+000   0.00000E+000   0.00000E+000   0.80760E-002   0.00000E+000   0.00000E+000   0.00000E+000   0.80760E-002
   0.73700E-002   0.00000E+000   0.00000E+000   0.00000E+000   0.73700E-002   0.00000E+000   0.00000E+000   0.00000E+000   0.73700E-002
   0.80120E-002   0.00000E+000   0.00000E+000   0.00000E+000   0.80120E-002   0.00000E+000   0.00000E+000   0.00000E+000   0.80120E-002
   0.86370E-002   0.00000E+000   0.00000E+000   0.00000E+000   0.86370E-002   0.00000E+000   0.00000E+000   0.00000E+000   0.86370E-002
   0.93410E-002   0.00000E+000   0.00000E+000   0.00000E+000   0.93410E-002   0.00000E+000   0.00000E+000   0.00000E+000   0.93410E-002
   0.73860E-002   0.00000E+000   0.00000E+000   0.00000E+000   0.73860E-002   0.00000E+000   0.00000E+000   0.00000E+000   0.73860E-002
   0.26550E-002   0.00000E+000   0.00000E+000   0.00000E+000   0.26550E-002   0.00000E+000   0.00000E+000   0.00000E+000   0.26550E-002
   0.31520E-002   0.00000E+000   0.00000E+000   0.00000E+000   0.31520E-002   0.00000E+000   0.00000E+000   0.00000E+000   0.31520E-002
   0.37390E-002   0.00000E+000   0.00000E+000   0.00000E+000   0.37390E-002   0.00000E+000   0.00000E+000   0.00000E+000   0.37390E-002
   0.27100E-002   0.00000E+000   0.00000E+000   0.00000E+000   0.27100E-002   0.00000E+000   0.00000E+000   0.00000E+000   0.27100E-002
   0.19330E-002   0.00000E+000   0.00000E+000   0.00000E+000   0.19330E-002   0.00000E+000   0.00000E+000   0.00000E+000   0.19330E-002
   0.22980E-002   0.00000E+000   0.00000E+000   0.00000E+000   0.22980E-002   0.00000E+000   0.00000E+000   0.00000E+000   0.22980E-002
   0.20340E-002   0.00000E+000   0.00000E+000   0.00000E+000   0.20340E-002   0.00000E+000   0.00000E+000   0.00000E+000   0.20340E-002
   0.13140E-002   0.00000E+000   0.00000E+000   0.00000E+000   0.13140E-002   0.00000E+000   0.00000E+000   0.00000E+000   0.13140E-002
   0.18160E-002   0.00000E+000   0.00000E+000   0.00000E+000   0.18160E-002   0.00000E+000   0.00000E+000   0.00000E+000   0.18160E-002
   0.58000E-003   0.00000E+000   0.00000E+000   0.00000E+000   0.58000E-003   0.00000E+000   0.00000E+000   0.00000E+000   0.58000E-003
   0.00000E+000   0.00000E+000   0.00000E+000   0.00000E+000   0.00000E+000   0.00000E+000   0.00000E+000   0.00000E+000   0.00000E+000
   0.00000E+000   0.00000E+000   0.00000E+000   0.00000E+000   0.00000E+000   0.00000E+000   0.00000E+000   0.00000E+000   0.00000E+000
   0.00000E+000   0.00000E+000   0.00000E+000   0.00000E+000   0.00000E+000   0.00000E+000   0.00000E+000   0.00000E+000   0.00000E+000
   0.43460E-002   0.00000E+000   0.00000E+000   0.00000E+000   0.43460E-002   0.00000E+000   0.00000E+000   0.00000E+000   0.43460E-002
   0.43880E-002   0.00000E+000   0.00000E+000   0.00000E+000   0.43880E-002   0.00000E+000   0.00000E+000   0.00000E+000   0.43880E-002
   0.45350E-002   0.00000E+000   0.00000E+000   0.00000E+000   0.45350E-002   0.00000E+000   0.00000E+000   0.00000E+000   0.45350E-002
   0.35990E-002   0.00000E+000   0.00000E+000   0.00000E+000   0.35990E-002   0.00000E+000   0.00000E+000   0.00000E+000   0.35990E-002
   0.26940E-002   0.00000E+000   0.00000E+000   0.00000E+000   0.26940E-002   0.00000E+000   0.00000E+000   0.00000E+000   0.26940E-002
   0.26960E-002   0.00000E+000   0.00000E+000   0.00000E+000   0.26960E-002   0.00000E+000   0.00000E+000   0.00000E+000   0.26960E-002
   0.20070E-002   0.00000E+000   0.00000E+000   0.00000E+000   0.20070E-002   0.00000E+000   0.00000E+000   0.00000E+000   0.20070E-002
   0.20130E-002   0.00000E+000   0.00000E+000   0.00000E+000   0.20130E-002   0.00000E+000   0.00000E+000   0.00000E+000   0.20130E-002
   0.25160E-002   0.00000E+000   0.00000E+000   0.00000E+000   0.25160E-002   0.00000E+000   0.00000E+000   0.00000E+000   0.25160E-002
   0.25810E-002   0.00000E+000   0.00000E+000   0.00000E+000   0.25810E-002   0.00000E+000   0.00000E+000   0.00000E+000   0.25810E-002
   0.17390E-002   0.00000E+000   0.00000E+000   0.00000E+000   0.17390E-002   0.00000E+000   0.00000E+000   0.00000E+000   0.17390E-002
   0.45450E-002   0.00000E+000   0.00000E+000   0.00000E+000   0.45450E-002   0.00000E+000   0.00000E+000   0.00000E+000   0.45450E-002
   0.35510E-002   0.00000E+000   0.00000E+000   0.00000E+000   0.35510E-002   0.00000E+000   0.00000E+000   0.00000E+000   0.35510E-002
   0.45040E-002   0.00000E+000   0.00000E+000   0.00000E+000   0.45040E-002   0.00000E+000   0.00000E+000   0.00000E+000   0.45040E-002
   0.32580E-002   0.00000E+000   0.00000E+000   0.00000E+000   0.32580E-002   0.00000E+000   0.00000E+000   0.00000E+000   0.32580E-002
   0.41270E-002   0.00000E+000   0.00000E+000   0.00000E+000   0.41270E-002   0.00000E+000   0.00000E+000   0.00000E+000   0.41270E-002
   0.48570E-002   0.00000E+000   0.00000E+000   0.00000E+000   0.48570E-002   0.00000E+000   0.00000E+000   0.00000E+000   0.48570E-002
   0.46380E-002   0.00000E+000   0.00000E+000   0.00000E+000   0.46380E-002   0.00000E+000   0.00000E+000   0.00000E+000   0.46380E-002
   0.35810E-002   0.00000E+000   0.00000E+000   0.00000E+000   0.35810E-002   0.00000E+000   0.00000E+000   0.00000E+000   0.35810E-002
   0.39700E-002   0.00000E+000   0.00000E+000   0.00000E+000   0.39700E-002   0.00000E+000   0.00000E+000   0.00000E+000   0.39700E-002
   0.10000E-001   0.00000E+000   0.00000E+000   0.00000E+000   0.10000E-001   0.00000E+000   0.00000E+000   0.00000E+000   0.10000E-001
   0.93940E-002   0.00000E+000   0.00000E+000   0.00000E+000   0.93940E-002   0.00000E+000   0.00000E+000   0.00000E+000   0.93940E-002
   0.93100E-002   0.00000E+000   0.00000E+000   0.00000E+000   0.93100E-002   0.00000E+000   0.00000E+000   0.00000E+000   0.93100E-002
   0.10000E-001   0.00000E+000   0.00000E+000   0.00000E+000   0.10000E-001   0.00000E+000   0.00000E+000   0.00000E+000   0.10000E-001
   0.10000E-001   0.00000E+000   0.00000E+000   0.00000E+000   0.10000E-001   0.00000E+000   0.00000E+000   0.00000E+000   0.10000E-001
   0.10000E-001   0.00000E+000   0.00000E+000   0.00000E+000   0.10000E-001   0.00000E+000   0.00000E+000   0.00000E+000   0.10000E-001
   0.28770E-002   0.00000E+000   0.00000E+000   0.00000E+000   0.28770E-002   0.00000E+000   0.00000E+000   0.00000E+000   0.28770E-002
   0.29150E-002   0.00000E+000   0.00000E+000   0.00000E+000   0.29150E-002   0.00000E+000   0.00000E+000   0.00000E+000   0.29150E-002
   0.39040E-002   0.00000E+000   0.00000E+000   0.00000E+000   0.39040E-002   0.00000E+000   0.00000E+000   0.00000E+000   0.39040E-002
   0.34080E-002   0.00000E+000   0.00000E+000   0.00000E+000   0.34080E-002   0.00000E+000   0.00000E+000   0.00000E+000   0.34080E-002
   0.28700E-002   0.00000E+000   0.00000E+000   0.00000E+000   0.28700E-002   0.00000E+000   0.00000E+000   0.00000E+000   0.28700E-002
   0.42940E-002   0.00000E+000   0.00000E+000   0.00000E+000   0.42940E-002   0.00000E+000   0.00000E+000   0.00000E+000   0.42940E-002
   0.27760E-002   0.00000E+000   0.00000E+000   0.00000E+000   0.27760E-002   0.00000E+000   0.00000E+000   0.00000E+000   0.27760E-002
   0.28580E-002   0.00000E+000   0.00000E+000   0.00000E+000   0.28580E-002   0.00000E+000   0.00000E+000   0.00000E+000   0.28580E-002
   0.36380E-002   0.00000E+000   0.00000E+000   0.00000E+000   0.36380E-002   0.00000E+000   0.00000E+000   0.00000E+000   0.36380E-002
   0.14210E-002   0.00000E+000   0.00000E+000   0.00000E+000   0.14210E-002   0.00000E+000   0.00000E+000   0.00000E+000   0.14210E-002
   0.12690E-002   0.00000E+000   0.00000E+000   0.00000E+000   0.12690E-002   0.00000E+000   0.00000E+000   0.00000E+000   0.12690E-002
   0.20180E-002   0.00000E+000   0.00000E+000   0.00000E+000   0.20180E-002   0.00000E+000   0.00000E+000   0.00000E+000   0.20180E-002
   0.19860E-002   0.00000E+000   0.00000E+000   0.00000E+000   0.19860E-002   0.00000E+000   0.00000E+000   0.00000E+000   0.19860E-002
   0.18040E-002   0.00000E+000   0.00000E+000   0.00000E+000   0.18040E-002   0.00000E+000   0.00000E+000   0.00000E+000   0.18040E-002
   0.22060E-002   0.00000E+000   0.00000E+000   0.00000E+000   0.22060E-002   0.00000E+000   0.00000E+000   0.00000E+000   0.22060E-002
   0.27260E-002   0.00000E+000   0.00000E+000   0.00000E+000   0.27260E-002   0.00000E+000   0.00000E+000   0.00000E+000   0.27260E-002
   0.13360E-002   0.00000E+000   0.00000E+000   0.00000E+000   0.13360E-002   0.00000E+000   0.00000E+000   0.00000E+000   0.13360E-002
   0.69600E-003   0.00000E+000   0.00000E+000   0.00000E+000   0.69600E-003   0.00000E+000   0.00000E+000   0.00000E+000   0.69600E-003
   0.38680E-002   0.00000E+000   0.00000E+000   0.00000E+000   0.38680E-002   0.00000E+000   0.00000E+000   0.00000E+000   0.38680E-002
   0.35330E-002   0.00000E+000   0.00000E+000   0.00000E+000   0.35330E-002   0.00000E+000   0.00000E+000   0.00000E+000   0.35330E-002
   0.49360E-002   0.00000E+000   0.00000E+000   0.00000E+000   0.49360E-002   0.00000E+000   0.00000E+000   0.00000E+000   0.49360E-002
   0.33090E-002   0.00000E+000   0.00000E+000   0.00000E+000   0.33090E-002   0.00000E+000   0.00000E+000   0.00000E+000   0.33090E-002
   0.41500E-002   0.00000E+000   0.00000E+000   0.00000E+000   0.41500E-002   0.00000E+000   0.00000E+000   0.00000E+000   0.41500E-002
   0.38270E-002   0.00000E+000   0.00000E+000   0.00000E+000   0.38270E-002   0.00000E+000   0.00000E+000   0.00000E+000   0.38270E-002
   0.34310E-002   0.00000E+000   0.00000E+000   0.00000E+000   0.34310E-002   0.00000E+000   0.00000E+000   0.00000E+000   0.34310E-002
   0.44060E-002   0.00000E+000   0.00000E+000   0.00000E+000   0.44060E-002   0.00000E+000   0.00000E+000   0.00000E+000   0.44060E-002
   0.49090E-002   0.00000E+000   0.00000E+000   0.00000E+000   0.49090E-002   0.00000E+000   0.00000E+000   0.00000E+000   0.49090E-002
   0.13340E-002   0.00000E+000   0.00000E+000   0.00000E+000   0.13340E-002   0.00000E+000   0.00000E+000   0.00000E+000   0.13340E-002
   0.19210E-002   0.00000E+000   0.00000E+000   0.00000E+000   0.19210E-002   0.00000E+000   0.00000E+000   0.00000E+000   0.19210E-002
   0.12820E-002   0.00000E+000   0.00000E+000   0.00000E+000   0.12820E-002   0.00000E+000   0.00000E+000   0.00000E+000   0.12820E-002
   0.87000E-003   0.00000E+000   0.00000E+000   0.00000E+000   0.87000E-003   0.00000E+000   0.00000E+000   0.00000E+000   0.87000E-003
   0.21050E-002   0.00000E+000   0.00000E+000   0.00000E+000   0.21050E-002   0.00000E+000   0.00000E+000   0.00000E+000   0.21050E-002
   0.63600E-003   0.00000E+000   0.00000E+000   0.00000E+000   0.63600E-003   0.00000E+000   0.00000E+000   0.00000E+000   0.63600E-003
   0.63500E-003   0.00000E+000   0.00000E+000   0.00000E+000   0.63500E-003   0.00000E+000   0.00000E+000   0.00000E+000   0.63500E-003
   0.16450E-002   0.00000E+000   0.00000E+000   0.00000E+000   0.16450E-002   0.00000E+000   0.00000E+000   0.00000E+000   0.16450E-002
   0.34410E-002   0.00000E+000   0.00000E+000   0.00000E+000   0.34410E-002   0.00000E+000   0.00000E+000   0.00000E+000   0.34410E-002
   0.29420E-002   0.00000E+000   0.00000E+000   0.00000E+000   0.29420E-002   0.00000E+000   0.00000E+000   0.00000E+000   0.29420E-002
   0.24980E-002   0.00000E+000   0.00000E+000   0.00000E+000   0.24980E-002   0.00000E+000   0.00000E+000   0.00000E+000   0.24980E-002
   0.44970E-002   0.00000E+000   0.00000E+000   0.00000E+000   0.44970E-002   0.00000E+000   0.00000E+000   0.00000E+000   0.44970E-002
   0.45700E-002   0.00000E+000   0.00000E+000   0.00000E+000   0.45700E-002   0.00000E+000   0.00000E+000   0.00000E+000   0.45700E-002
   0.45830E-002   0.00000E+000   0.00000E+000   0.00000E+000   0.45830E-002   0.00000E+000   0.00000E+000   0.00000E+000   0.45830E-002
   0.36520E-002   0.00000E+000   0.00000E+000   0.00000E+000   0.36520E-002   0.00000E+000   0.00000E+000   0.00000E+000   0.36520E-002
   0.26990E-002   0.00000E+000   0.00000E+000   0.00000E+000   0.26990E-002   0.00000E+000   0.00000E+000   0.00000E+000   0.26990E-002
   0.11330E-002   0.00000E+000   0.00000E+000   0.00000E+000   0.11330E-002   0.00000E+000   0.00000E+000   0.00000E+000   0.11330E-002
   0.00000E+000   0.00000E+000   0.00000E+000   0.00000E+000   0.00000E+000   0.00000E+000   0.00000E+000   0.00000E+000   0.00000E+000
   0.00000E+000   0.00000E+000   0.00000E+000   0.00000E+000   0.00000E+000   0.00000E+000   0.00000E+000   0.00000E+000   0.00000E+000
   0.80100E-003   0.00000E+000   0.00000E+000   0.00000E+000   0.80100E-003   0.00000E+000   0.00000E+000   0.00000E+000   0.80100E-003
   0.44080E-002   0.00000E+000   0.00000E+000   0.00000E+000   0.44080E-002   0.00000E+000   0.00000E+000   0.00000E+000   0.44080E-002
   0.45350E-002   0.00000E+000   0.00000E+000   0.00000E+000   0.45350E-002   0.00000E+000   0.00000E+000   0.00000E+000   0.45350E-002
   0.62100E-003   0.00000E+000   0.00000E+000   0.00000E+000   0.62100E-003   0.00000E+000   0.00000E+000   0.00000E+000   0.62100E-003
   0.00000E+000   0.00000E+000   0.00000E+000   0.00000E+000   0.00000E+000   0.00000E+000   0.00000E+000   0.00000E+000   0.00000E+000
   0.89700E-003   0.00000E+000   0.00000E+000   0.00000E+000   0.89700E-003   0.00000E+000   0.00000E+000   0.00000E+000   0.89700E-003
   0.00000E+000   0.00000E+000   0.00000E+000   0.00000E+000   0.00000E+000   0.00000E+000   0.00000E+000   0.00000E+000   0.00000E+000
   0.00000E+000   0.00000E+000   0.00000E+000   0.00000E+000   0.00000E+000   0.00000E+000   0.00000E+000   0.00000E+000   0.00000E+000
   0.10440E-002   0.00000E+000   0.00000E+000   0.00000E+000   0.10440E-002   0.00000E+000   0.00000E+000   0.00000E+000   0.10440E-002
   0.90100E-003   0.00000E+000   0.00000E+000   0.00000E+000   0.90100E-003   0.00000E+000   0.00000E+000   0.00000E+000   0.90100E-003
   0.18060E-002   0.00000E+000   0.00000E+000   0.00000E+000   0.18060E-002   0.00000E+000   0.00000E+000   0.00000E+000   0.18060E-002
   0.00000E+000   0.00000E+000   0.00000E+000   0.00000E+000   0.00000E+000   0.00000E+000   0.00000E+000   0.00000E+000   0.00000E+000
   0.49880E-002   0.00000E+000   0.00000E+000   0.00000E+000   0.49880E-002   0.00000E+000   0.00000E+000   0.00000E+000   0.49880E-002
   0.45070E-002   0.00000E+000   0.00000E+000   0.00000E+000   0.45070E-002   0.00000E+000   0.00000E+000   0.00000E+000   0.45070E-002
   0.54780E-002   0.00000E+000   0.00000E+000   0.00000E+000   0.54780E-002   0.00000E+000   0.00000E+000   0.00000E+000   0.54780E-002
   0.27270E-002   0.00000E+000   0.00000E+000   0.00000E+000   0.27270E-002   0.00000E+000   0.00000E+000   0.00000E+000   0.27270E-002
   0.27290E-002   0.00000E+000   0.00000E+000   0.00000E+000   0.27290E-002   0.00000E+000   0.00000E+000   0.00000E+000   0.27290E-002
   0.18100E-002   0.00000E+000   0.00000E+000   0.00000E+000   0.18100E-002   0.00000E+000   0.00000E+000   0.00000E+000   0.18100E-002
   0.72110E-002   0.00000E+000   0.00000E+000   0.00000E+000   0.72110E-002   0.00000E+000   0.00000E+000   0.00000E+000   0.72110E-002
   0.63560E-002   0.00000E+000   0.00000E+000   0.00000E+000   0.63560E-002   0.00000E+000   0.00000E+000   0.00000E+000   0.63560E-002
   0.63880E-002   0.00000E+000   0.00000E+000   0.00000E+000   0.63880E-002   0.00000E+000   0.00000E+000   0.00000E+000   0.63880E-002
   0.55890E-002   0.00000E+000   0.00000E+000   0.00000E+000   0.55890E-002   0.00000E+000   0.00000E+000   0.00000E+000   0.55890E-002
   0.56080E-002   0.00000E+000   0.00000E+000   0.00000E+000   0.56080E-002   0.00000E+000   0.00000E+000   0.00000E+000   0.56080E-002
   0.10030E-002   0.00000E+000   0.00000E+000   0.00000E+000   0.10030E-002   0.00000E+000   0.00000E+000   0.00000E+000   0.10030E-002
   0.87100E-003   0.00000E+000   0.00000E+000   0.00000E+000   0.87100E-003   0.00000E+000   0.00000E+000   0.00000E+000   0.87100E-003
   0.00000E+000   0.00000E+000   0.00000E+000   0.00000E+000   0.00000E+000   0.00000E+000   0.00000E+000   0.00000E+000   0.00000E+000
   0.00000E+000   0.00000E+000   0.00000E+000   0.00000E+000   0.00000E+000   0.00000E+000   0.00000E+000   0.00000E+000   0.00000E+000
   0.63150E-002   0.00000E+000   0.00000E+000   0.00000E+000   0.63150E-002   0.00000E+000   0.00000E+000   0.00000E+000   0.63150E-002
   0.60300E-003   0.00000E+000   0.00000E+000   0.00000E+000   0.60300E-003   0.00000E+000   0.00000E+000   0.00000E+000   0.60300E-003
   0.00000E+000   0.00000E+000   0.00000E+000   0.00000E+000   0.00000E+000   0.00000E+000   0.00000E+000   0.00000E+000   0.00000E+000
   0.89900E-003   0.00000E+000   0.00000E+000   0.00000E+000   0.89900E-003   0.00000E+000   0.00000E+000   0.00000E+000   0.89900E-003
   0.89900E-003   0.00000E+000   0.00000E+000   0.00000E+000   0.89900E-003   0.00000E+000   0.00000E+000   0.00000E+000   0.89900E-003
   0.00000E+000   0.00000E+000   0.00000E+000   0.00000E+000   0.00000E+000   0.00000E+000   0.00000E+000   0.00000E+000   0.00000E+000
   0.92150E-002   0.00000E+000   0.00000E+000   0.00000E+000   0.92150E-002   0.00000E+000   0.00000E+000   0.00000E+000   0.92150E-002
   0.93570E-002   0.00000E+000   0.00000E+000   0.00000E+000   0.93570E-002   0.00000E+000   0.00000E+000   0.00000E+000   0.93570E-002
   0.10000E-001   0.00000E+000   0.00000E+000   0.00000E+000   0.10000E-001   0.00000E+000   0.00000E+000   0.00000E+000   0.10000E-001
   0.87940E-002   0.00000E+000   0.00000E+000   0.00000E+000   0.87940E-002   0.00000E+000   0.00000E+000   0.00000E+000   0.87940E-002
   0.94130E-002   0.00000E+000   0.00000E+000   0.00000E+000   0.94130E-002   0.00000E+000   0.00000E+000   0.00000E+000   0.94130E-002
   0.82200E-002   0.00000E+000   0.00000E+000   0.00000E+000   0.82200E-002   0.00000E+000   0.00000E+000   0.00000E+000   0.82200E-002
   0.82060E-002   0.00000E+000   0.00000E+000   0.00000E+000   0.82060E-002   0.00000E+000   0.00000E+000   0.00000E+000   0.82060E-002
   0.75700E-003   0.00000E+000   0.00000E+000   0.00000E+000   0.75700E-003   0.00000E+000   0.00000E+000   0.00000E+000   0.75700E-003
   0.12140E-002   0.00000E+000   0.00000E+000   0.00000E+000   0.12140E-002   0.00000E+000   0.00000E+000   0.00000E+000   0.12140E-002
   0.18150E-002   0.00000E+000   0.00000E+000   0.00000E+000   0.18150E-002   0.00000E+000   0.00000E+000   0.00000E+000   0.18150E-002
   0.18410E-002   0.00000E+000   0.00000E+000   0.00000E+000   0.18410E-002   0.00000E+000   0.00000E+000   0.00000E+000   0.18410E-002
   0.92600E-003   0.00000E+000   0.00000E+000   0.00000E+000   0.92600E-003   0.00000E+000   0.00000E+000   0.00000E+000   0.92600E-003
   0.65600E-003   0.00000E+000   0.00000E+000   0.00000E+000   0.65600E-003   0.00000E+000   0.00000E+000   0.00000E+000   0.65600E-003
   0.58700E-003   0.00000E+000   0.00000E+000   0.00000E+000   0.58700E-003   0.00000E+000   0.00000E+000   0.00000E+000   0.58700E-003
   0.00000E+000   0.00000E+000   0.00000E+000   0.00000E+000   0.00000E+000   0.00000E+000   0.00000E+000   0.00000E+000   0.00000E+000
   0.00000E+000   0.00000E+000   0.00000E+000   0.00000E+000   0.00000E+000   0.00000E+000   0.00000E+000   0.00000E+000   0.00000E+000
   0.81200E-002   0.00000E+000   0.00000E+000   0.00000E+000   0.81200E-002   0.00000E+000   0.00000E+000   0.00000E+000   0.81200E-002
   0.87550E-002   0.00000E+000   0.00000E+000   0.00000E+000   0.87550E-002   0.00000E+000   0.00000E+000   0.00000E+000   0.87550E-002
   0.93690E-002   0.00000E+000   0.00000E+000   0.00000E+000   0.93690E-002   0.00000E+000   0.00000E+000   0.00000E+000   0.93690E-002
   0.44540E-002   0.00000E+000   0.00000E+000   0.00000E+000   0.44540E-002   0.00000E+000   0.00000E+000   0.00000E+000   0.44540E-002
   0.50080E-002   0.00000E+000   0.00000E+000   0.00000E+000   0.50080E-002   0.00000E+000   0.00000E+000   0.00000E+000   0.50080E-002
   0.55610E-002   0.00000E+000   0.00000E+000   0.00000E+000   0.55610E-002   0.00000E+000   0.00000E+000   0.00000E+000   0.55610E-002
   0.87160E-002   0.00000E+000   0.00000E+000   0.00000E+000   0.87160E-002   0.00000E+000   0.00000E+000   0.00000E+000   0.87160E-002
   0.93770E-002   0.00000E+000   0.00000E+000   0.00000E+000   0.93770E-002   0.00000E+000   0.00000E+000   0.00000E+000   0.93770E-002
   0.93230E-002   0.00000E+000   0.00000E+000   0.00000E+000   0.93230E-002   0.00000E+000   0.00000E+000   0.00000E+000   0.93230E-002
   0.45030E-002   0.00000E+000   0.00000E+000   0.00000E+000   0.45030E-002   0.00000E+000   0.00000E+000   0.00000E+000   0.45030E-002
   0.86600E-003   0.00000E+000   0.00000E+000   0.00000E+000   0.86600E-003   0.00000E+000   0.00000E+000   0.00000E+000   0.86600E-003
   0.17260E-002   0.00000E+000   0.00000E+000   0.00000E+000   0.17260E-002   0.00000E+000   0.00000E+000   0.00000E+000   0.17260E-002
   0.53540E-002   0.00000E+000   0.00000E+000   0.00000E+000   0.53540E-002   0.00000E+000   0.00000E+000   0.00000E+000   0.53540E-002
   0.55660E-002   0.00000E+000   0.00000E+000   0.00000E+000   0.55660E-002   0.00000E+000   0.00000E+000   0.00000E+000   0.55660E-002
   0.55740E-002   0.00000E+000   0.00000E+000   0.00000E+000   0.55740E-002   0.00000E+000   0.00000E+000   0.00000E+000   0.55740E-002
   0.46400E-002   0.00000E+000   0.00000E+000   0.00000E+000   0.46400E-002   0.00000E+000   0.00000E+000   0.00000E+000   0.46400E-002
   0.14380E-002   0.00000E+000   0.00000E+000   0.00000E+000   0.14380E-002   0.00000E+000   0.00000E+000   0.00000E+000   0.14380E-002
   0.17240E-002   0.00000E+000   0.00000E+000   0.00000E+000   0.17240E-002   0.00000E+000   0.00000E+000   0.00000E+000   0.17240E-002
   0.81370E-002   0.00000E+000   0.00000E+000   0.00000E+000   0.81370E-002   0.00000E+000   0.00000E+000   0.00000E+000   0.81370E-002
   0.77340E-002   0.00000E+000   0.00000E+000   0.00000E+000   0.77340E-002   0.00000E+000   0.00000E+000   0.00000E+000   0.77340E-002
   0.86600E-003   0.00000E+000   0.00000E+000   0.00000E+000   0.86600E-003   0.00000E+000   0.00000E+000   0.00000E+000   0.86600E-003
   0.54920E-002   0.00000E+000   0.00000E+000   0.00000E+000   0.54920E-002   0.00000E+000   0.00000E+000   0.00000E+000   0.54920E-002
   0.58350E-002   0.00000E+000   0.00000E+000   0.00000E+000   0.58350E-002   0.00000E+000   0.00000E+000   0.00000E+000   0.58350E-002
   0.55400E-003   0.00000E+000   0.00000E+000   0.00000E+000   0.55400E-003   0.00000E+000   0.00000E+000   0.00000E+000   0.55400E-003
   0.14780E-002   0.00000E+000   0.00000E+000   0.00000E+000   0.14780E-002   0.00000E+000   0.00000E+000   0.00000E+000   0.14780E-002
   0.94900E-003   0.00000E+000   0.00000E+000   0.00000E+000   0.94900E-003   0.00000E+000   0.00000E+000   0.00000E+000   0.94900E-003
   0.55480E-002   0.00000E+000   0.00000E+000   0.00000E+000   0.55480E-002   0.00000E+000   0.00000E+000   0.00000E+000   0.55480E-002
   0.64460E-002   0.00000E+000   0.00000E+000   0.00000E+000   0.64460E-002   0.00000E+000   0.00000E+000   0.00000E+000   0.64460E-002
   0.64760E-002   0.00000E+000   0.00000E+000   0.00000E+000   0.64760E-002   0.00000E+000   0.00000E+000   0.00000E+000   0.64760E-002
   0.80840E-002   0.00000E+000   0.00000E+000   0.00000E+000   0.80840E-002   0.00000E+000   0.00000E+000   0.00000E+000   0.80840E-002
   0.73460E-002   0.00000E+000   0.00000E+000   0.00000E+000   0.73460E-002   0.00000E+000   0.00000E+000   0.00000E+000   0.73460E-002
   0.91340E-002   0.00000E+000   0.00000E+000   0.00000E+000   0.91340E-002   0.00000E+000   0.00000E+000   0.00000E+000   0.91340E-002
   0.75650E-002   0.00000E+000   0.00000E+000   0.00000E+000   0.75650E-002   0.00000E+000   0.00000E+000   0.00000E+000   0.75650E-002
   0.74590E-002   0.00000E+000   0.00000E+000   0.00000E+000   0.74590E-002   0.00000E+000   0.00000E+000   0.00000E+000   0.74590E-002
   0.71040E-002   0.00000E+000   0.00000E+000   0.00000E+000   0.71040E-002   0.00000E+000   0.00000E+000   0.00000E+000   0.71040E-002
   0.65230E-002   0.00000E+000   0.00000E+000   0.00000E+000   0.65230E-002   0.00000E+000   0.00000E+000   0.00000E+000   0.65230E-002
   0.73030E-002   0.00000E+000   0.00000E+000   0.00000E+000   0.73030E-002   0.00000E+000   0.00000E+000   0.00000E+000   0.73030E-002
   0.80440E-002   0.00000E+000   0.00000E+000   0.00000E+000   0.80440E-002   0.00000E+000   0.00000E+000   0.00000E+000   0.80440E-002
   0.80310E-002   0.00000E+000   0.00000E+000   0.00000E+000   0.80310E-002   0.00000E+000   0.00000E+000   0.00000E+000   0.80310E-002
   0.74410E-002   0.00000E+000   0.00000E+000   0.00000E+000   0.74410E-002   0.00000E+000   0.00000E+000   0.00000E+000   0.74410E-002
   0.55570E-002   0.00000E+000   0.00000E+000   0.00000E+000   0.55570E-002   0.00000E+000   0.00000E+000   0.00000E+000   0.55570E-002
   0.58240E-002   0.00000E+000   0.00000E+000   0.00000E+000   0.58240E-002   0.00000E+000   0.00000E+000   0.00000E+000   0.58240E-002
   0.44500E-002   0.00000E+000   0.00000E+000   0.00000E+000   0.44500E-002   0.00000E+000   0.00000E+000   0.00000E+000   0.44500E-002
   0.41720E-002   0.00000E+000   0.00000E+000   0.00000E+000   0.41720E-002   0.00000E+000   0.00000E+000   0.00000E+000   0.41720E-002
   0.50630E-002   0.00000E+000   0.00000E+000   0.00000E+000   0.50630E-002   0.00000E+000   0.00000E+000   0.00000E+000   0.50630E-002
   0.59640E-002   0.00000E+000   0.00000E+000   0.00000E+000   0.59640E-002   0.00000E+000   0.00000E+000   0.00000E+000   0.59640E-002
   0.64200E-002   0.00000E+000   0.00000E+000   0.00000E+000   0.64200E-002   0.00000E+000   0.00000E+000   0.00000E+000   0.64200E-002
   0.55570E-002   0.00000E+000   0.00000E+000   0.00000E+000   0.55570E-002   0.00000E+000   0.00000E+000   0.00000E+000   0.55570E-002
   0.62850E-002   0.00000E+000   0.00000E+000   0.00000E+000   0.62850E-002   0.00000E+000   0.00000E+000   0.00000E+000   0.62850E-002
   0.74250E-002   0.00000E+000   0.00000E+000   0.00000E+000   0.74250E-002   0.00000E+000   0.00000E+000   0.00000E+000   0.74250E-002
   0.80530E-002   0.00000E+000   0.00000E+000   0.00000E+000   0.80530E-002   0.00000E+000   0.00000E+000   0.00000E+000   0.80530E-002
   0.72360E-002   0.00000E+000   0.00000E+000   0.00000E+000   0.72360E-002   0.00000E+000   0.00000E+000   0.00000E+000   0.72360E-002
   0.89250E-002   0.00000E+000   0.00000E+000   0.00000E+000   0.89250E-002   0.00000E+000   0.00000E+000   0.00000E+000   0.89250E-002
   0.88020E-002   0.00000E+000   0.00000E+000   0.00000E+000   0.88020E-002   0.00000E+000   0.00000E+000   0.00000E+000   0.88020E-002
   0.84710E-002   0.00000E+000   0.00000E+000   0.00000E+000   0.84710E-002   0.00000E+000   0.00000E+000   0.00000E+000   0.84710E-002
   0.94120E-002   0.00000E+000   0.00000E+000   0.00000E+000   0.94120E-002   0.00000E+000   0.00000E+000   0.00000E+000   0.94120E-002
   0.63950E-002   0.00000E+000   0.00000E+000   0.00000E+000   0.63950E-002   0.00000E+000   0.00000E+000   0.00000E+000   0.63950E-002
   0.61760E-002   0.00000E+000   0.00000E+000   0.00000E+000   0.61760E-002   0.00000E+000   0.00000E+000   0.00000E+000   0.61760E-002
   0.62800E-002   0.00000E+000   0.00000E+000   0.00000E+000   0.62800E-002   0.00000E+000   0.00000E+000   0.00000E+000   0.62800E-002
   0.63850E-002   0.00000E+000   0.00000E+000   0.00000E+000   0.63850E-002   0.00000E+000   0.00000E+000   0.00000E+000   0.63850E-002
   0.64010E-002   0.00000E+000   0.00000E+000   0.00000E+000   0.64010E-002   0.00000E+000   0.00000E+000   0.00000E+000   0.64010E-002
   0.54790E-002   0.00000E+000   0.00000E+000   0.00000E+000   0.54790E-002   0.00000E+000   0.00000E+000   0.00000E+000   0.54790E-002
   0.45550E-002   0.00000E+000   0.00000E+000   0.00000E+000   0.45550E-002   0.00000E+000   0.00000E+000   0.00000E+000   0.45550E-002
   0.45600E-002   0.00000E+000   0.00000E+000   0.00000E+000   0.45600E-002   0.00000E+000   0.00000E+000   0.00000E+000   0.45600E-002
   0.36590E-002   0.00000E+000   0.00000E+000   0.00000E+000   0.36590E-002   0.00000E+000   0.00000E+000   0.00000E+000   0.36590E-002
   0.27350E-002   0.00000E+000   0.00000E+000   0.00000E+000   0.27350E-002   0.00000E+000   0.00000E+000   0.00000E+000   0.27350E-002
   0.27280E-002   0.00000E+000   0.00000E+000   0.00000E+000   0.27280E-002   0.00000E+000   0.00000E+000   0.00000E+000   0.27280E-002
   0.37990E-002   0.00000E+000   0.00000E+000   0.00000E+000   0.37990E-002   0.00000E+000   0.00000E+000   0.00000E+000   0.37990E-002
   0.33000E-002   0.00000E+000   0.00000E+000   0.00000E+000   0.33000E-002   0.00000E+000   0.00000E+000   0.00000E+000   0.33000E-002
   0.26480E-002   0.00000E+000   0.00000E+000   0.00000E+000   0.26480E-002   0.00000E+000   0.00000E+000   0.00000E+000   0.26480E-002
   0.58100E-003   0.00000E+000   0.00000E+000   0.00000E+000   0.58100E-003   0.00000E+000   0.00000E+000   0.00000E+000   0.58100E-003
   0.00000E+000   0.00000E+000   0.00000E+000   0.00000E+000   0.00000E+000   0.00000E+000   0.00000E+000   0.00000E+000   0.00000E+000
   0.00000E+000   0.00000E+000   0.00000E+000   0.00000E+000   0.00000E+000   0.00000E+000   0.00000E+000   0.00000E+000   0.00000E+000
   0.00000E+000   0.00000E+000   0.00000E+000   0.00000E+000   0.00000E+000   0.00000E+000   0.00000E+000   0.00000E+000   0.00000E+000
   0.28350E-002   0.00000E+000   0.00000E+000   0.00000E+000   0.28350E-002   0.00000E+000   0.00000E+000   0.00000E+000   0.28350E-002
   0.18960E-002   0.00000E+000   0.00000E+000   0.00000E+000   0.18960E-002   0.00000E+000   0.00000E+000   0.00000E+000   0.18960E-002
   0.85100E-003   0.00000E+000   0.00000E+000   0.00000E+000   0.85100E-003   0.00000E+000   0.00000E+000   0.00000E+000   0.85100E-003
   0.89900E-003   0.00000E+000   0.00000E+000   0.00000E+000   0.89900E-003   0.00000E+000   0.00000E+000   0.00000E+000   0.89900E-003
   0.59500E-003   0.00000E+000   0.00000E+000   0.00000E+000   0.59500E-003   0.00000E+000   0.00000E+000   0.00000E+000   0.59500E-003
   0.00000E+000   0.00000E+000   0.00000E+000   0.00000E+000   0.00000E+000   0.00000E+000   0.00000E+000   0.00000E+000   0.00000E+000
   0.62400E-003   0.00000E+000   0.00000E+000   0.00000E+000   0.62400E-003   0.00000E+000   0.00000E+000   0.00000E+000   0.62400E-003
   0.11370E-002   0.00000E+000   0.00000E+000   0.00000E+000   0.11370E-002   0.00000E+000   0.00000E+000   0.00000E+000   0.11370E-002
   0.18230E-002   0.00000E+000   0.00000E+000   0.00000E+000   0.18230E-002   0.00000E+000   0.00000E+000   0.00000E+000   0.18230E-002
   0.73930E-002   0.00000E+000   0.00000E+000   0.00000E+000   0.73930E-002   0.00000E+000   0.00000E+000   0.00000E+000   0.73930E-002
   0.68780E-002   0.00000E+000   0.00000E+000   0.00000E+000   0.68780E-002   0.00000E+000   0.00000E+000   0.00000E+000   0.68780E-002
   0.46600E-002   0.00000E+000   0.00000E+000   0.00000E+000   0.46600E-002   0.00000E+000   0.00000E+000   0.00000E+000   0.46600E-002
   0.36960E-002   0.00000E+000   0.00000E+000   0.00000E+000   0.36960E-002   0.00000E+000   0.00000E+000   0.00000E+000   0.36960E-002
   0.46140E-002   0.00000E+000   0.00000E+000   0.00000E+000   0.46140E-002   0.00000E+000   0.00000E+000   0.00000E+000   0.46140E-002
   0.73910E-002   0.00000E+000   0.00000E+000   0.00000E+000   0.73910E-002   0.00000E+000   0.00000E+000   0.00000E+000   0.73910E-002
   0.19240E-002   0.00000E+000   0.00000E+000   0.00000E+000   0.19240E-002   0.00000E+000   0.00000E+000   0.00000E+000   0.19240E-002
   0.87650E-002   0.00000E+000   0.00000E+000   0.00000E+000   0.87650E-002   0.00000E+000   0.00000E+000   0.00000E+000   0.87650E-002
   0.10000E-001   0.00000E+000   0.00000E+000   0.00000E+000   0.10000E-001   0.00000E+000   0.00000E+000   0.00000E+000   0.10000E-001
   0.91260E-002   0.00000E+000   0.00000E+000   0.00000E+000   0.91260E-002   0.00000E+000   0.00000E+000   0.00000E+000   0.91260E-002
   0.10000E-001   0.00000E+000   0.00000E+000   0.00000E+000   0.10000E-001   0.00000E+000   0.00000E+000   0.00000E+000   0.10000E-001
   0.36550E-002   0.00000E+000   0.00000E+000   0.00000E+000   0.36550E-002   0.00000E+000   0.00000E+000   0.00000E+000   0.36550E-002
   0.45950E-002   0.00000E+000   0.00000E+000   0.00000E+000   0.45950E-002   0.00000E+000   0.00000E+000   0.00000E+000   0.45950E-002
   0.91980E-002   0.00000E+000   0.00000E+000   0.00000E+000   0.91980E-002   0.00000E+000   0.00000E+000   0.00000E+000   0.91980E-002
   0.10000E-001   0.00000E+000   0.00000E+000   0.00000E+000   0.10000E-001   0.00000E+000   0.00000E+000   0.00000E+000   0.10000E-001
   0.10000E-001   0.00000E+000   0.00000E+000   0.00000E+000   0.10000E-001   0.00000E+000   0.00000E+000   0.00000E+000   0.10000E-001
   0.10000E-001   0.00000E+000   0.00000E+000   0.00000E+000   0.10000E-001   0.00000E+000   0.00000E+000   0.00000E+000   0.10000E-001
   0.22040E-002   0.00000E+000   0.00000E+000   0.00000E+000   0.22040E-002   0.00000E+000   0.00000E+000   0.00000E+000   0.22040E-002
   0.19230E-002   0.00000E+000   0.00000E+000   0.00000E+000   0.19230E-002   0.00000E+000   0.00000E+000   0.00000E+000   0.19230E-002
   0.18250E-002   0.00000E+000   0.00000E+000   0.00000E+000   0.18250E-002   0.00000E+000   0.00000E+000   0.00000E+000   0.18250E-002
   0.91300E-002   0.00000E+000   0.00000E+000   0.00000E+000   0.91300E-002   0.00000E+000   0.00000E+000   0.00000E+000   0.91300E-002
   0.10000E-001   0.00000E+000   0.00000E+000   0.00000E+000   0.10000E-001   0.00000E+000   0.00000E+000   0.00000E+000   0.10000E-001
   0.10000E-001   0.00000E+000   0.00000E+000   0.00000E+000   0.10000E-001   0.00000E+000   0.00000E+000   0.00000E+000   0.10000E-001
   0.10000E-001   0.00000E+000   0.00000E+000   0.00000E+000   0.10000E-001   0.00000E+000   0.00000E+000   0.00000E+000   0.10000E-001
   0.66230E-002   0.00000E+000   0.00000E+000   0.00000E+000   0.66230E-002   0.00000E+000   0.00000E+000   0.00000E+000   0.66230E-002
   0.18040E-002   0.00000E+000   0.00000E+000   0.00000E+000   0.18040E-002   0.00000E+000   0.00000E+000   0.00000E+000   0.18040E-002
   0.87010E-002   0.00000E+000   0.00000E+000   0.00000E+000   0.87010E-002   0.00000E+000   0.00000E+000   0.00000E+000   0.87010E-002
   0.80350E-002   0.00000E+000   0.00000E+000   0.00000E+000   0.80350E-002   0.00000E+000   0.00000E+000   0.00000E+000   0.80350E-002
   0.73600E-002   0.00000E+000   0.00000E+000   0.00000E+000   0.73600E-002   0.00000E+000   0.00000E+000   0.00000E+000   0.73600E-002
   0.60280E-002   0.00000E+000   0.00000E+000   0.00000E+000   0.60280E-002   0.00000E+000   0.00000E+000   0.00000E+000   0.60280E-002
   0.65570E-002   0.00000E+000   0.00000E+000   0.00000E+000   0.65570E-002   0.00000E+000   0.00000E+000   0.00000E+000   0.65570E-002
   0.80390E-002   0.00000E+000   0.00000E+000   0.00000E+000   0.80390E-002   0.00000E+000   0.00000E+000   0.00000E+000   0.80390E-002
   0.87480E-002   0.00000E+000   0.00000E+000   0.00000E+000   0.87480E-002   0.00000E+000   0.00000E+000   0.00000E+000   0.87480E-002
   0.73640E-002   0.00000E+000   0.00000E+000   0.00000E+000   0.73640E-002   0.00000E+000   0.00000E+000   0.00000E+000   0.73640E-002
   0.94240E-002   0.00000E+000   0.00000E+000   0.00000E+000   0.94240E-002   0.00000E+000   0.00000E+000   0.00000E+000   0.94240E-002
   0.91310E-002   0.00000E+000   0.00000E+000   0.00000E+000   0.91310E-002   0.00000E+000   0.00000E+000   0.00000E+000   0.91310E-002
   0.10000E-001   0.00000E+000   0.00000E+000   0.00000E+000   0.10000E-001   0.00000E+000   0.00000E+000   0.00000E+000   0.10000E-001
   0.10000E-001   0.00000E+000   0.00000E+000   0.00000E+000   0.10000E-001   0.00000E+000   0.00000E+000   0.00000E+000   0.10000E-001
   0.91270E-002   0.00000E+000   0.00000E+000   0.00000E+000   0.91270E-002   0.00000E+000   0.00000E+000   0.00000E+000   0.91270E-002
   0.94360E-002   0.00000E+000   0.00000E+000   0.00000E+000   0.94360E-002   0.00000E+000   0.00000E+000   0.00000E+000   0.94360E-002
   0.10000E-001   0.00000E+000   0.00000E+000   0.00000E+000   0.10000E-001   0.00000E+000   0.00000E+000   0.00000E+000   0.10000E-001
   0.91310E-002   0.00000E+000   0.00000E+000   0.00000E+000   0.91310E-002   0.00000E+000   0.00000E+000   0.00000E+000   0.91310E-002
   0.36530E-002   0.00000E+000   0.00000E+000   0.00000E+000   0.36530E-002   0.00000E+000   0.00000E+000   0.00000E+000   0.36530E-002
   0.27260E-002   0.00000E+000   0.00000E+000   0.00000E+000   0.27260E-002   0.00000E+000   0.00000E+000   0.00000E+000   0.27260E-002
   0.27250E-002   0.00000E+000   0.00000E+000   0.00000E+000   0.27250E-002   0.00000E+000   0.00000E+000   0.00000E+000   0.27250E-002
   0.27860E-002   0.00000E+000   0.00000E+000   0.00000E+000   0.27860E-002   0.00000E+000   0.00000E+000   0.00000E+000   0.27860E-002
   0.26230E-002   0.00000E+000   0.00000E+000   0.00000E+000   0.26230E-002   0.00000E+000   0.00000E+000   0.00000E+000   0.26230E-002
   0.20290E-002   0.00000E+000   0.00000E+000   0.00000E+000   0.20290E-002   0.00000E+000   0.00000E+000   0.00000E+000   0.20290E-002
   0.92400E-003   0.00000E+000   0.00000E+000   0.00000E+000   0.92400E-003   0.00000E+000   0.00000E+000   0.00000E+000   0.92400E-003
   0.36540E-002   0.00000E+000   0.00000E+000   0.00000E+000   0.36540E-002   0.00000E+000   0.00000E+000   0.00000E+000   0.36540E-002
   0.45900E-002   0.00000E+000   0.00000E+000   0.00000E+000   0.45900E-002   0.00000E+000   0.00000E+000   0.00000E+000   0.45900E-002
   0.45940E-002   0.00000E+000   0.00000E+000   0.00000E+000   0.45940E-002   0.00000E+000   0.00000E+000   0.00000E+000   0.45940E-002
   0.10000E-002   0.00000E+000   0.00000E+000   0.00000E+000   0.10000E-002   0.00000E+000   0.00000E+000   0.00000E+000   0.10000E-002
   0.26540E-002   0.00000E+000   0.00000E+000   0.00000E+000   0.26540E-002   0.00000E+000   0.00000E+000   0.00000E+000   0.26540E-002
   0.65190E-002   0.00000E+000   0.00000E+000   0.00000E+000   0.65190E-002   0.00000E+000   0.00000E+000   0.00000E+000   0.65190E-002
   0.53980E-002   0.00000E+000   0.00000E+000   0.00000E+000   0.53980E-002   0.00000E+000   0.00000E+000   0.00000E+000   0.53980E-002
   0.27280E-002   0.00000E+000   0.00000E+000   0.00000E+000   0.27280E-002   0.00000E+000   0.00000E+000   0.00000E+000   0.27280E-002
   0.79990E-002   0.00000E+000   0.00000E+000   0.00000E+000   0.79990E-002   0.00000E+000   0.00000E+000   0.00000E+000   0.79990E-002
   0.75380E-002   0.00000E+000   0.00000E+000   0.00000E+000   0.75380E-002   0.00000E+000   0.00000E+000   0.00000E+000   0.75380E-002
   0.85380E-002   0.00000E+000   0.00000E+000   0.00000E+000   0.85380E-002   0.00000E+000   0.00000E+000   0.00000E+000   0.85380E-002
   0.85160E-002   0.00000E+000   0.00000E+000   0.00000E+000   0.85160E-002   0.00000E+000   0.00000E+000   0.00000E+000   0.85160E-002
   0.81700E-002   0.00000E+000   0.00000E+000   0.00000E+000   0.81700E-002   0.00000E+000   0.00000E+000   0.00000E+000   0.81700E-002
   0.55160E-002   0.00000E+000   0.00000E+000   0.00000E+000   0.55160E-002   0.00000E+000   0.00000E+000   0.00000E+000   0.55160E-002
   0.81640E-002   0.00000E+000   0.00000E+000   0.00000E+000   0.81640E-002   0.00000E+000   0.00000E+000   0.00000E+000   0.81640E-002
   0.80000E-002   0.00000E+000   0.00000E+000   0.00000E+000   0.80000E-002   0.00000E+000   0.00000E+000   0.00000E+000   0.80000E-002
   0.80780E-002   0.00000E+000   0.00000E+000   0.00000E+000   0.80780E-002   0.00000E+000   0.00000E+000   0.00000E+000   0.80780E-002
   0.71850E-002   0.00000E+000   0.00000E+000   0.00000E+000   0.71850E-002   0.00000E+000   0.00000E+000   0.00000E+000   0.71850E-002
   0.86930E-002   0.00000E+000   0.00000E+000   0.00000E+000   0.86930E-002   0.00000E+000   0.00000E+000   0.00000E+000   0.86930E-002
   0.73290E-002   0.00000E+000   0.00000E+000   0.00000E+000   0.73290E-002   0.00000E+000   0.00000E+000   0.00000E+000   0.73290E-002
   0.25920E-002   0.00000E+000   0.00000E+000   0.00000E+000   0.25920E-002   0.00000E+000   0.00000E+000   0.00000E+000   0.25920E-002
   0.29110E-002   0.00000E+000   0.00000E+000   0.00000E+000   0.29110E-002   0.00000E+000   0.00000E+000   0.00000E+000   0.29110E-002
   0.93680E-002   0.00000E+000   0.00000E+000   0.00000E+000   0.93680E-002   0.00000E+000   0.00000E+000   0.00000E+000   0.93680E-002
   0.93270E-002   0.00000E+000   0.00000E+000   0.00000E+000   0.93270E-002   0.00000E+000   0.00000E+000   0.00000E+000   0.93270E-002
   0.74290E-002   0.00000E+000   0.00000E+000   0.00000E+000   0.74290E-002   0.00000E+000   0.00000E+000   0.00000E+000   0.74290E-002
   0.75070E-002   0.00000E+000   0.00000E+000   0.00000E+000   0.75070E-002   0.00000E+000   0.00000E+000   0.00000E+000   0.75070E-002
   0.93540E-002   0.00000E+000   0.00000E+000   0.00000E+000   0.93540E-002   0.00000E+000   0.00000E+000   0.00000E+000   0.93540E-002
   0.91350E-002   0.00000E+000   0.00000E+000   0.00000E+000   0.91350E-002   0.00000E+000   0.00000E+000   0.00000E+000   0.91350E-002
   0.91340E-002   0.00000E+000   0.00000E+000   0.00000E+000   0.91340E-002   0.00000E+000   0.00000E+000   0.00000E+000   0.91340E-002
   0.82740E-002   0.00000E+000   0.00000E+000   0.00000E+000   0.82740E-002   0.00000E+000   0.00000E+000   0.00000E+000   0.82740E-002
   0.92560E-002   0.00000E+000   0.00000E+000   0.00000E+000   0.92560E-002   0.00000E+000   0.00000E+000   0.00000E+000   0.92560E-002
   0.86500E-002   0.00000E+000   0.00000E+000   0.00000E+000   0.86500E-002   0.00000E+000   0.00000E+000   0.00000E+000   0.86500E-002
   0.45990E-002   0.00000E+000   0.00000E+000   0.00000E+000   0.45990E-002   0.00000E+000   0.00000E+000   0.00000E+000   0.45990E-002
   0.55010E-002   0.00000E+000   0.00000E+000   0.00000E+000   0.55010E-002   0.00000E+000   0.00000E+000   0.00000E+000   0.55010E-002
   0.52310E-002   0.00000E+000   0.00000E+000   0.00000E+000   0.52310E-002   0.00000E+000   0.00000E+000   0.00000E+000   0.52310E-002
   0.54680E-002   0.00000E+000   0.00000E+000   0.00000E+000   0.54680E-002   0.00000E+000   0.00000E+000   0.00000E+000   0.54680E-002
   0.44860E-002   0.00000E+000   0.00000E+000   0.00000E+000   0.44860E-002   0.00000E+000   0.00000E+000   0.00000E+000   0.44860E-002
   0.68500E-003   0.00000E+000   0.00000E+000   0.00000E+000   0.68500E-003   0.00000E+000   0.00000E+000   0.00000E+000   0.68500E-003
   0.87590E-002   0.00000E+000   0.00000E+000   0.00000E+000   0.87590E-002   0.00000E+000   0.00000E+000   0.00000E+000   0.87590E-002
   0.80360E-002   0.00000E+000   0.00000E+000   0.00000E+000   0.80360E-002   0.00000E+000   0.00000E+000   0.00000E+000   0.80360E-002
   0.82500E-002   0.00000E+000   0.00000E+000   0.00000E+000   0.82500E-002   0.00000E+000   0.00000E+000   0.00000E+000   0.82500E-002
   0.87020E-002   0.00000E+000   0.00000E+000   0.00000E+000   0.87020E-002   0.00000E+000   0.00000E+000   0.00000E+000   0.87020E-002
   0.82490E-002   0.00000E+000   0.00000E+000   0.00000E+000   0.82490E-002   0.00000E+000   0.00000E+000   0.00000E+000   0.82490E-002
   0.79980E-002   0.00000E+000   0.00000E+000   0.00000E+000   0.79980E-002   0.00000E+000   0.00000E+000   0.00000E+000   0.79980E-002
   0.88420E-002   0.00000E+000   0.00000E+000   0.00000E+000   0.88420E-002   0.00000E+000   0.00000E+000   0.00000E+000   0.88420E-002
   0.36700E-002   0.00000E+000   0.00000E+000   0.00000E+000   0.36700E-002   0.00000E+000   0.00000E+000   0.00000E+000   0.36700E-002
   0.87120E-002   0.00000E+000   0.00000E+000   0.00000E+000   0.87120E-002   0.00000E+000   0.00000E+000   0.00000E+000   0.87120E-002
   0.73540E-002   0.00000E+000   0.00000E+000   0.00000E+000   0.73540E-002   0.00000E+000   0.00000E+000   0.00000E+000   0.73540E-002
   0.62980E-002   0.00000E+000   0.00000E+000   0.00000E+000   0.62980E-002   0.00000E+000   0.00000E+000   0.00000E+000   0.62980E-002
   0.54980E-002   0.00000E+000   0.00000E+000   0.00000E+000   0.54980E-002   0.00000E+000   0.00000E+000   0.00000E+000   0.54980E-002
   0.61070E-002   0.00000E+000   0.00000E+000   0.00000E+000   0.61070E-002   0.00000E+000   0.00000E+000   0.00000E+000   0.61070E-002
   0.53910E-002   0.00000E+000   0.00000E+000   0.00000E+000   0.53910E-002   0.00000E+000   0.00000E+000   0.00000E+000   0.53910E-002
   0.60060E-002   0.00000E+000   0.00000E+000   0.00000E+000   0.60060E-002   0.00000E+000   0.00000E+000   0.00000E+000   0.60060E-002
   0.44890E-002   0.00000E+000   0.00000E+000   0.00000E+000   0.44890E-002   0.00000E+000   0.00000E+000   0.00000E+000   0.44890E-002
   0.49350E-002   0.00000E+000   0.00000E+000   0.00000E+000   0.49350E-002   0.00000E+000   0.00000E+000   0.00000E+000   0.49350E-002
   0.94280E-002   0.00000E+000   0.00000E+000   0.00000E+000   0.94280E-002   0.00000E+000   0.00000E+000   0.00000E+000   0.94280E-002
   0.12930E-002   0.00000E+000   0.00000E+000   0.00000E+000   0.12930E-002   0.00000E+000   0.00000E+000   0.00000E+000   0.12930E-002
   0.56090E-002   0.00000E+000   0.00000E+000   0.00000E+000   0.56090E-002   0.00000E+000   0.00000E+000   0.00000E+000   0.56090E-002
   0.50000E-002   0.00000E+000   0.00000E+000   0.00000E+000   0.50000E-002   0.00000E+000   0.00000E+000   0.00000E+000   0.50000E-002
   0.00000E+000   0.00000E+000   0.00000E+000   0.00000E+000   0.00000E+000   0.00000E+000   0.00000E+000   0.00000E+000   0.00000E+000
   0.28330E-002   0.00000E+000   0.00000E+000   0.00000E+000   0.28330E-002   0.00000E+000   0.00000E+000   0.00000E+000   0.28330E-002
   0.93770E-002   0.00000E+000   0.00000E+000   0.00000E+000   0.93770E-002   0.00000E+000   0.00000E+000   0.00000E+000   0.93770E-002
   0.10000E-001   0.00000E+000   0.00000E+000   0.00000E+000   0.10000E-001   0.00000E+000   0.00000E+000   0.00000E+000   0.10000E-001
   0.10000E-001   0.00000E+000   0.00000E+000   0.00000E+000   0.10000E-001   0.00000E+000   0.00000E+000   0.00000E+000   0.10000E-001
   0.10880E-002   0.00000E+000   0.00000E+000   0.00000E+000   0.10880E-002   0.00000E+000   0.00000E+000   0.00000E+000   0.10880E-002
   0.17450E-002   0.00000E+000   0.00000E+000   0.00000E+000   0.17450E-002   0.00000E+000   0.00000E+000   0.00000E+000   0.17450E-002
   0.18520E-002   0.00000E+000   0.00000E+000   0.00000E+000   0.18520E-002   0.00000E+000   0.00000E+000   0.00000E+000   0.18520E-002
   0.60400E-003   0.00000E+000   0.00000E+000   0.00000E+000   0.60400E-003   0.00000E+000   0.00000E+000   0.00000E+000   0.60400E-003
   0.65200E-003   0.00000E+000   0.00000E+000   0.00000E+000   0.65200E-003   0.00000E+000   0.00000E+000   0.00000E+000   0.65200E-003
   0.88330E-002   0.00000E+000   0.00000E+000   0.00000E+000   0.88330E-002   0.00000E+000   0.00000E+000   0.00000E+000   0.88330E-002
   0.10000E-001   0.00000E+000   0.00000E+000   0.00000E+000   0.10000E-001   0.00000E+000   0.00000E+000   0.00000E+000   0.10000E-001
   0.34530E-002   0.00000E+000   0.00000E+000   0.00000E+000   0.34530E-002   0.00000E+000   0.00000E+000   0.00000E+000   0.34530E-002
   0.35000E-002   0.00000E+000   0.00000E+000   0.00000E+000   0.35000E-002   0.00000E+000   0.00000E+000   0.00000E+000   0.35000E-002
   0.18070E-002   0.00000E+000   0.00000E+000   0.00000E+000   0.18070E-002   0.00000E+000   0.00000E+000   0.00000E+000   0.18070E-002
   0.91210E-002   0.00000E+000   0.00000E+000   0.00000E+000   0.91210E-002   0.00000E+000   0.00000E+000   0.00000E+000   0.91210E-002
   0.91910E-002   0.00000E+000   0.00000E+000   0.00000E+000   0.91910E-002   0.00000E+000   0.00000E+000   0.00000E+000   0.91910E-002
   0.69200E-003   0.00000E+000   0.00000E+000   0.00000E+000   0.69200E-003   0.00000E+000   0.00000E+000   0.00000E+000   0.69200E-003
   0.25940E-002   0.00000E+000   0.00000E+000   0.00000E+000   0.25940E-002   0.00000E+000   0.00000E+000   0.00000E+000   0.25940E-002
   0.94490E-002   0.00000E+000   0.00000E+000   0.00000E+000   0.94490E-002   0.00000E+000   0.00000E+000   0.00000E+000   0.94490E-002
   0.10000E-001   0.00000E+000   0.00000E+000   0.00000E+000   0.10000E-001   0.00000E+000   0.00000E+000   0.00000E+000   0.10000E-001
   0.10000E-001   0.00000E+000   0.00000E+000   0.00000E+000   0.10000E-001   0.00000E+000   0.00000E+000   0.00000E+000   0.10000E-001
   0.72260E-002   0.00000E+000   0.00000E+000   0.00000E+000   0.72260E-002   0.00000E+000   0.00000E+000   0.00000E+000   0.72260E-002
   0.70000E-002   0.00000E+000   0.00000E+000   0.00000E+000   0.70000E-002   0.00000E+000   0.00000E+000   0.00000E+000   0.70000E-002
   0.65090E-002   0.00000E+000   0.00000E+000   0.00000E+000   0.65090E-002   0.00000E+000   0.00000E+000   0.00000E+000   0.65090E-002
   0.70390E-002   0.00000E+000   0.00000E+000   0.00000E+000   0.70390E-002   0.00000E+000   0.00000E+000   0.00000E+000   0.70390E-002
   0.59690E-002   0.00000E+000   0.00000E+000   0.00000E+000   0.59690E-002   0.00000E+000   0.00000E+000   0.00000E+000   0.59690E-002
   0.55020E-002   0.00000E+000   0.00000E+000   0.00000E+000   0.55020E-002   0.00000E+000   0.00000E+000   0.00000E+000   0.55020E-002
   0.54140E-002   0.00000E+000   0.00000E+000   0.00000E+000   0.54140E-002   0.00000E+000   0.00000E+000   0.00000E+000   0.54140E-002
   0.66770E-002   0.00000E+000   0.00000E+000   0.00000E+000   0.66770E-002   0.00000E+000   0.00000E+000   0.00000E+000   0.66770E-002
   0.74110E-002   0.00000E+000   0.00000E+000   0.00000E+000   0.74110E-002   0.00000E+000   0.00000E+000   0.00000E+000   0.74110E-002
   0.53200E-002   0.00000E+000   0.00000E+000   0.00000E+000   0.53200E-002   0.00000E+000   0.00000E+000   0.00000E+000   0.53200E-002
   0.79400E-003   0.00000E+000   0.00000E+000   0.00000E+000   0.79400E-003   0.00000E+000   0.00000E+000   0.00000E+000   0.79400E-003
   0.11560E-002   0.00000E+000   0.00000E+000   0.00000E+000   0.11560E-002   0.00000E+000   0.00000E+000   0.00000E+000   0.11560E-002
   0.55160E-002   0.00000E+000   0.00000E+000   0.00000E+000   0.55160E-002   0.00000E+000   0.00000E+000   0.00000E+000   0.55160E-002
   0.10000E-001   0.00000E+000   0.00000E+000   0.00000E+000   0.10000E-001   0.00000E+000   0.00000E+000   0.00000E+000   0.10000E-001
   0.10000E-001   0.00000E+000   0.00000E+000   0.00000E+000   0.10000E-001   0.00000E+000   0.00000E+000   0.00000E+000   0.10000E-001
   0.63900E-003   0.00000E+000   0.00000E+000   0.00000E+000   0.63900E-003   0.00000E+000   0.00000E+000   0.00000E+000   0.63900E-003
   0.12150E-002   0.00000E+000   0.00000E+000   0.00000E+000   0.12150E-002   0.00000E+000   0.00000E+000   0.00000E+000   0.12150E-002
   0.88890E-002   0.00000E+000   0.00000E+000   0.00000E+000   0.88890E-002   0.00000E+000   0.00000E+000   0.00000E+000   0.88890E-002
   0.10000E-001   0.00000E+000   0.00000E+000   0.00000E+000   0.10000E-001   0.00000E+000   0.00000E+000   0.00000E+000   0.10000E-001
   0.80700E-002   0.00000E+000   0.00000E+000   0.00000E+000   0.80700E-002   0.00000E+000   0.00000E+000   0.00000E+000   0.80700E-002
   0.10000E-001   0.00000E+000   0.00000E+000   0.00000E+000   0.10000E-001   0.00000E+000   0.00000E+000   0.00000E+000   0.10000E-001
   0.81800E-002   0.00000E+000   0.00000E+000   0.00000E+000   0.81800E-002   0.00000E+000   0.00000E+000   0.00000E+000   0.81800E-002
   0.00000E+000   0.00000E+000   0.00000E+000   0.00000E+000   0.00000E+000   0.00000E+000   0.00000E+000   0.00000E+000   0.00000E+000
   0.00000E+000   0.00000E+000   0.00000E+000   0.00000E+000   0.00000E+000   0.00000E+000   0.00000E+000   0.00000E+000   0.00000E+000
   0.60860E-002   0.00000E+000   0.00000E+000   0.00000E+000   0.60860E-002   0.00000E+000   0.00000E+000   0.00000E+000   0.60860E-002
   0.10000E-001   0.00000E+000   0.00000E+000   0.00000E+000   0.10000E-001   0.00000E+000   0.00000E+000   0.00000E+000   0.10000E-001
   0.10000E-001   0.00000E+000   0.00000E+000   0.00000E+000   0.10000E-001   0.00000E+000   0.00000E+000   0.00000E+000   0.10000E-001
   0.93460E-002   0.00000E+000   0.00000E+000   0.00000E+000   0.93460E-002   0.00000E+000   0.00000E+000   0.00000E+000   0.93460E-002
   0.90000E-002   0.00000E+000   0.00000E+000   0.00000E+000   0.90000E-002   0.00000E+000   0.00000E+000   0.00000E+000   0.90000E-002
   0.27490E-002   0.00000E+000   0.00000E+000   0.00000E+000   0.27490E-002   0.00000E+000   0.00000E+000   0.00000E+000   0.27490E-002
   0.10000E-001   0.00000E+000   0.00000E+000   0.00000E+000   0.10000E-001   0.00000E+000   0.00000E+000   0.00000E+000   0.10000E-001
   0.10000E-001   0.00000E+000   0.00000E+000   0.00000E+000   0.10000E-001   0.00000E+000   0.00000E+000   0.00000E+000   0.10000E-001
   0.91300E-002   0.00000E+000   0.00000E+000   0.00000E+000   0.91300E-002   0.00000E+000   0.00000E+000   0.00000E+000   0.91300E-002
   0.00000E+000   0.00000E+000   0.00000E+000   0.00000E+000   0.00000E+000   0.00000E+000   0.00000E+000   0.00000E+000   0.00000E+000
   0.00000E+000   0.00000E+000   0.00000E+000   0.00000E+000   0.00000E+000   0.00000E+000   0.00000E+000   0.00000E+000   0.00000E+000
   0.00000E+000   0.00000E+000   0.00000E+000   0.00000E+000   0.00000E+000   0.00000E+000   0.00000E+000   0.00000E+000   0.00000E+000
   0.91290E-002   0.00000E+000   0.00000E+000   0.00000E+000   0.91290E-002   0.00000E+000   0.00000E+000   0.00000E+000   0.91290E-002
   0.87100E-003   0.00000E+000   0.00000E+000   0.00000E+000   0.87100E-003   0.00000E+000   0.00000E+000   0.00000E+000   0.87100E-003
   0.17310E-002   0.00000E+000   0.00000E+000   0.00000E+000   0.17310E-002   0.00000E+000   0.00000E+000   0.00000E+000   0.17310E-002
   0.87150E-002   0.00000E+000   0.00000E+000   0.00000E+000   0.87150E-002   0.00000E+000   0.00000E+000   0.00000E+000   0.87150E-002
   0.94180E-002   0.00000E+000   0.00000E+000   0.00000E+000   0.94180E-002   0.00000E+000   0.00000E+000   0.00000E+000   0.94180E-002
   0.82680E-002   0.00000E+000   0.00000E+000   0.00000E+000   0.82680E-002   0.00000E+000   0.00000E+000   0.00000E+000   0.82680E-002
   0.00000E+000   0.00000E+000   0.00000E+000   0.00000E+000   0.00000E+000   0.00000E+000   0.00000E+000   0.00000E+000   0.00000E+000
   0.00000E+000   0.00000E+000   0.00000E+000   0.00000E+000   0.00000E+000   0.00000E+000   0.00000E+000   0.00000E+000   0.00000E+000
   0.87900E-003   0.00000E+000   0.00000E+000   0.00000E+000   0.87900E-003   0.00000E+000   0.00000E+000   0.00000E+000   0.87900E-003
   0.61760E-002   0.00000E+000   0.00000E+000   0.00000E+000   0.61760E-002   0.00000E+000   0.00000E+000   0.00000E+000   0.61760E-002
   0.00000E+000   0.00000E+000   0.00000E+000   0.00000E+000   0.00000E+000   0.00000E+000   0.00000E+000   0.00000E+000   0.00000E+000
   0.00000E+000   0.00000E+000   0.00000E+000   0.00000E+000   0.00000E+000   0.00000E+000   0.00000E+000   0.00000E+000   0.00000E+000
   0.29610E-002   0.00000E+000   0.00000E+000   0.00000E+000   0.29610E-002   0.00000E+000   0.00000E+000   0.00000E+000   0.29610E-002
   0.24620E-002   0.00000E+000   0.00000E+000   0.00000E+000   0.24620E-002   0.00000E+000   0.00000E+000   0.00000E+000   0.24620E-002
   0.18360E-002   0.00000E+000   0.00000E+000   0.00000E+000   0.18360E-002   0.00000E+000   0.00000E+000   0.00000E+000   0.18360E-002
   0.20000E-002   0.00000E+000   0.00000E+000   0.00000E+000   0.20000E-002   0.00000E+000   0.00000E+000   0.00000E+000   0.20000E-002
   0.30000E-002   0.00000E+000   0.00000E+000   0.00000E+000   0.30000E-002   0.00000E+000   0.00000E+000   0.00000E+000   0.30000E-002
   0.00000E+000   0.00000E+000   0.00000E+000   0.00000E+000   0.00000E+000   0.00000E+000   0.00000E+000   0.00000E+000   0.00000E+000
   0.00000E+000   0.00000E+000   0.00000E+000   0.00000E+000   0.00000E+000   0.00000E+000   0.00000E+000   0.00000E+000   0.00000E+000
   0.00000E+000   0.00000E+000   0.00000E+000   0.00000E+000   0.00000E+000   0.00000E+000   0.00000E+000   0.00000E+000   0.00000E+000
   0.00000E+000   0.00000E+000   0.00000E+000   0.00000E+000   0.00000E+000   0.00000E+000   0.00000E+000   0.00000E+000   0.00000E+000
   0.54370E-002   0.00000E+000   0.00000E+000   0.00000E+000   0.54370E-002   0.00000E+000   0.00000E+000   0.00000E+000   0.54370E-002
   0.50000E-002   0.00000E+000   0.00000E+000   0.00000E+000   0.50000E-002   0.00000E+000   0.00000E+000   0.00000E+000   0.50000E-002
   0.40000E-002   0.00000E+000   0.00000E+000   0.00000E+000   0.40000E-002   0.00000E+000   0.00000E+000   0.00000E+000   0.40000E-002
   0.49650E-002   0.00000E+000   0.00000E+000   0.00000E+000   0.49650E-002   0.00000E+000   0.00000E+000   0.00000E+000   0.49650E-002
   0.54750E-002   0.00000E+000   0.00000E+000   0.00000E+000   0.54750E-002   0.00000E+000   0.00000E+000   0.00000E+000   0.54750E-002
   0.60000E-002   0.00000E+000   0.00000E+000   0.00000E+000   0.60000E-002   0.00000E+000   0.00000E+000   0.00000E+000   0.60000E-002
   0.55130E-002   0.00000E+000   0.00000E+000   0.00000E+000   0.55130E-002   0.00000E+000   0.00000E+000   0.00000E+000   0.55130E-002
   0.50000E-002   0.00000E+000   0.00000E+000   0.00000E+000   0.50000E-002   0.00000E+000   0.00000E+000   0.00000E+000   0.50000E-002
   0.44180E-002   0.00000E+000   0.00000E+000   0.00000E+000   0.44180E-002   0.00000E+000   0.00000E+000   0.00000E+000   0.44180E-002
   0.50080E-002   0.00000E+000   0.00000E+000   0.00000E+000   0.50080E-002   0.00000E+000   0.00000E+000   0.00000E+000   0.50080E-002
   0.45030E-002   0.00000E+000   0.00000E+000   0.00000E+000   0.45030E-002   0.00000E+000   0.00000E+000   0.00000E+000   0.45030E-002
   0.00000E+000   0.00000E+000   0.00000E+000   0.00000E+000   0.00000E+000   0.00000E+000   0.00000E+000   0.00000E+000   0.00000E+000
   0.94500E-003   0.00000E+000   0.00000E+000   0.00000E+000   0.94500E-003   0.00000E+000   0.00000E+000   0.00000E+000   0.94500E-003
   0.00000E+000   0.00000E+000   0.00000E+000   0.00000E+000   0.00000E+000   0.00000E+000   0.00000E+000   0.00000E+000   0.00000E+000
   0.10000E-002   0.00000E+000   0.00000E+000   0.00000E+000   0.10000E-002   0.00000E+000   0.00000E+000   0.00000E+000   0.10000E-002
   0.00000E+000   0.00000E+000   0.00000E+000   0.00000E+000   0.00000E+000   0.00000E+000   0.00000E+000   0.00000E+000   0.00000E+000
   0.00000E+000   0.00000E+000   0.00000E+000   0.00000E+000   0.00000E+000   0.00000E+000   0.00000E+000   0.00000E+000   0.00000E+000
   0.65100E-003   0.00000E+000   0.00000E+000   0.00000E+000   0.65100E-003   0.00000E+000   0.00000E+000   0.00000E+000   0.65100E-003
   0.24510E-002   0.00000E+000   0.00000E+000   0.00000E+000   0.24510E-002   0.00000E+000   0.00000E+000   0.00000E+000   0.24510E-002
   0.27510E-002   0.00000E+000   0.00000E+000   0.00000E+000   0.27510E-002   0.00000E+000   0.00000E+000   0.00000E+000   0.27510E-002
   0.27220E-002   0.00000E+000   0.00000E+000   0.00000E+000   0.27220E-002   0.00000E+000   0.00000E+000   0.00000E+000   0.27220E-002
   0.34770E-002   0.00000E+000   0.00000E+000   0.00000E+000   0.34770E-002   0.00000E+000   0.00000E+000   0.00000E+000   0.34770E-002
   0.30000E-002   0.00000E+000   0.00000E+000   0.00000E+000   0.30000E-002   0.00000E+000   0.00000E+000   0.00000E+000   0.30000E-002
   0.35380E-002   0.00000E+000   0.00000E+000   0.00000E+000   0.35380E-002   0.00000E+000   0.00000E+000   0.00000E+000   0.35380E-002
   0.74930E-002   0.00000E+000   0.00000E+000   0.00000E+000   0.74930E-002   0.00000E+000   0.00000E+000   0.00000E+000   0.74930E-002
   0.75740E-002   0.00000E+000   0.00000E+000   0.00000E+000   0.75740E-002   0.00000E+000   0.00000E+000   0.00000E+000   0.75740E-002
   0.86600E-002   0.00000E+000   0.00000E+000   0.00000E+000   0.86600E-002   0.00000E+000   0.00000E+000   0.00000E+000   0.86600E-002
   0.80820E-002   0.00000E+000   0.00000E+000   0.00000E+000   0.80820E-002   0.00000E+000   0.00000E+000   0.00000E+000   0.80820E-002
   0.81810E-002   0.00000E+000   0.00000E+000   0.00000E+000   0.81810E-002   0.00000E+000   0.00000E+000   0.00000E+000   0.81810E-002
   0.70000E-002   0.00000E+000   0.00000E+000   0.00000E+000   0.70000E-002   0.00000E+000   0.00000E+000   0.00000E+000   0.70000E-002
   0.80000E-002   0.00000E+000   0.00000E+000   0.00000E+000   0.80000E-002   0.00000E+000   0.00000E+000   0.00000E+000   0.80000E-002
   0.72520E-002   0.00000E+000   0.00000E+000   0.00000E+000   0.72520E-002   0.00000E+000   0.00000E+000   0.00000E+000   0.72520E-002
   0.00000E+000   0.00000E+000   0.00000E+000   0.00000E+000   0.00000E+000   0.00000E+000   0.00000E+000   0.00000E+000   0.00000E+000
   0.64130E-002   0.00000E+000   0.00000E+000   0.00000E+000   0.64130E-002   0.00000E+000   0.00000E+000   0.00000E+000   0.64130E-002
   0.65300E-002   0.00000E+000   0.00000E+000   0.00000E+000   0.65300E-002   0.00000E+000   0.00000E+000   0.00000E+000   0.65300E-002
   0.47910E-002   0.00000E+000   0.00000E+000   0.00000E+000   0.47910E-002   0.00000E+000   0.00000E+000   0.00000E+000   0.47910E-002
   0.36450E-002   0.00000E+000   0.00000E+000   0.00000E+000   0.36450E-002   0.00000E+000   0.00000E+000   0.00000E+000   0.36450E-002
   0.27630E-002   0.00000E+000   0.00000E+000   0.00000E+000   0.27630E-002   0.00000E+000   0.00000E+000   0.00000E+000   0.27630E-002
   0.27730E-002   0.00000E+000   0.00000E+000   0.00000E+000   0.27730E-002   0.00000E+000   0.00000E+000   0.00000E+000   0.27730E-002
   0.34910E-002   0.00000E+000   0.00000E+000   0.00000E+000   0.34910E-002   0.00000E+000   0.00000E+000   0.00000E+000   0.34910E-002
   0.35570E-002   0.00000E+000   0.00000E+000   0.00000E+000   0.35570E-002   0.00000E+000   0.00000E+000   0.00000E+000   0.35570E-002
   0.90570E-002   0.00000E+000   0.00000E+000   0.00000E+000   0.90570E-002   0.00000E+000   0.00000E+000   0.00000E+000   0.90570E-002
   0.72720E-002   0.00000E+000   0.00000E+000   0.00000E+000   0.72720E-002   0.00000E+000   0.00000E+000   0.00000E+000   0.72720E-002
   0.86800E-003   0.00000E+000   0.00000E+000   0.00000E+000   0.86800E-003   0.00000E+000   0.00000E+000   0.00000E+000   0.86800E-003
   0.73620E-002   0.00000E+000   0.00000E+000   0.00000E+000   0.73620E-002   0.00000E+000   0.00000E+000   0.00000E+000   0.73620E-002
   0.00000E+000   0.00000E+000   0.00000E+000   0.00000E+000   0.00000E+000   0.00000E+000   0.00000E+000   0.00000E+000   0.00000E+000
   0.00000E+000   0.00000E+000   0.00000E+000   0.00000E+000   0.00000E+000   0.00000E+000   0.00000E+000   0.00000E+000   0.00000E+000
   0.00000E+000   0.00000E+000   0.00000E+000   0.00000E+000   0.00000E+000   0.00000E+000   0.00000E+000   0.00000E+000   0.00000E+000
   0.25910E-002   0.00000E+000   0.00000E+000   0.00000E+000   0.25910E-002   0.00000E+000   0.00000E+000   0.00000E+000   0.25910E-002
   0.39910E-002   0.00000E+000   0.00000E+000   0.00000E+000   0.39910E-002   0.00000E+000   0.00000E+000   0.00000E+000   0.39910E-002
   0.46190E-002   0.00000E+000   0.00000E+000   0.00000E+000   0.46190E-002   0.00000E+000   0.00000E+000   0.00000E+000   0.46190E-002
   0.18520E-002   0.00000E+000   0.00000E+000   0.00000E+000   0.18520E-002   0.00000E+000   0.00000E+000   0.00000E+000   0.18520E-002
   0.18370E-002   0.00000E+000   0.00000E+000   0.00000E+000   0.18370E-002   0.00000E+000   0.00000E+000   0.00000E+000   0.18370E-002
   0.37480E-002   0.00000E+000   0.00000E+000   0.00000E+000   0.37480E-002   0.00000E+000   0.00000E+000   0.00000E+000   0.37480E-002
   0.37360E-002   0.00000E+000   0.00000E+000   0.00000E+000   0.37360E-002   0.00000E+000   0.00000E+000   0.00000E+000   0.37360E-002
   0.27830E-002   0.00000E+000   0.00000E+000   0.00000E+000   0.27830E-002   0.00000E+000   0.00000E+000   0.00000E+000   0.27830E-002
   0.18220E-002   0.00000E+000   0.00000E+000   0.00000E+000   0.18220E-002   0.00000E+000   0.00000E+000   0.00000E+000   0.18220E-002
   0.91330E-002   0.00000E+000   0.00000E+000   0.00000E+000   0.91330E-002   0.00000E+000   0.00000E+000   0.00000E+000   0.91330E-002
   0.82790E-002   0.00000E+000   0.00000E+000   0.00000E+000   0.82790E-002   0.00000E+000   0.00000E+000   0.00000E+000   0.82790E-002
   0.91880E-002   0.00000E+000   0.00000E+000   0.00000E+000   0.91880E-002   0.00000E+000   0.00000E+000   0.00000E+000   0.91880E-002
   0.82010E-002   0.00000E+000   0.00000E+000   0.00000E+000   0.82010E-002   0.00000E+000   0.00000E+000   0.00000E+000   0.82010E-002
   0.14550E-002   0.00000E+000   0.00000E+000   0.00000E+000   0.14550E-002   0.00000E+000   0.00000E+000   0.00000E+000   0.14550E-002
   0.65100E-002   0.00000E+000   0.00000E+000   0.00000E+000   0.65100E-002   0.00000E+000   0.00000E+000   0.00000E+000   0.65100E-002
   0.73340E-002   0.00000E+000   0.00000E+000   0.00000E+000   0.73340E-002   0.00000E+000   0.00000E+000   0.00000E+000   0.73340E-002
   0.10000E-001   0.00000E+000   0.00000E+000   0.00000E+000   0.10000E-001   0.00000E+000   0.00000E+000   0.00000E+000   0.10000E-001
   0.10000E-001   0.00000E+000   0.00000E+000   0.00000E+000   0.10000E-001   0.00000E+000   0.00000E+000   0.00000E+000   0.10000E-001
   0.00000E+000   0.00000E+000   0.00000E+000   0.00000E+000   0.00000E+000   0.00000E+000   0.00000E+000   0.00000E+000   0.00000E+000
   0.00000E+000   0.00000E+000   0.00000E+000   0.00000E+000   0.00000E+000   0.00000E+000   0.00000E+000   0.00000E+000   0.00000E+000
   0.10000E-001   0.00000E+000   0.00000E+000   0.00000E+000   0.10000E-001   0.00000E+000   0.00000E+000   0.00000E+000   0.10000E-001
   0.10000E-001   0.00000E+000   0.00000E+000   0.00000E+000   0.10000E-001   0.00000E+000   0.00000E+000   0.00000E+000   0.10000E-001
   0.10000E-001   0.00000E+000   0.00000E+000   0.00000E+000   0.10000E-001   0.00000E+000   0.00000E+000   0.00000E+000   0.10000E-001
   0.10000E-001   0.00000E+000   0.00000E+000   0.00000E+000   0.10000E-001   0.00000E+000   0.00000E+000   0.00000E+000   0.10000E-001
   0.10000E-001   0.00000E+000   0.00000E+000   0.00000E+000   0.10000E-001   0.00000E+000   0.00000E+000   0.00000E+000   0.10000E-001
   0.00000E+000   0.00000E+000   0.00000E+000   0.00000E+000   0.00000E+000   0.00000E+000   0.00000E+000   0.00000E+000   0.00000E+000
   0.17280E-002   0.00000E+000   0.00000E+000   0.00000E+000   0.17280E-002   0.00000E+000   0.00000E+000   0.00000E+000   0.17280E-002
   0.65420E-002   0.00000E+000   0.00000E+000   0.00000E+000   0.65420E-002   0.00000E+000   0.00000E+000   0.00000E+000   0.65420E-002
   0.10000E-001   0.00000E+000   0.00000E+000   0.00000E+000   0.10000E-001   0.00000E+000   0.00000E+000   0.00000E+000   0.10000E-001
   0.55130E-002   0.00000E+000   0.00000E+000   0.00000E+000   0.55130E-002   0.00000E+000   0.00000E+000   0.00000E+000   0.55130E-002
   0.73490E-002   0.00000E+000   0.00000E+000   0.00000E+000   0.73490E-002   0.00000E+000   0.00000E+000   0.00000E+000   0.73490E-002
   0.80180E-002   0.00000E+000   0.00000E+000   0.00000E+000   0.80180E-002   0.00000E+000   0.00000E+000   0.00000E+000   0.80180E-002
   0.82460E-002   0.00000E+000   0.00000E+000   0.00000E+000   0.82460E-002   0.00000E+000   0.00000E+000   0.00000E+000   0.82460E-002
   0.73470E-002   0.00000E+000   0.00000E+000   0.00000E+000   0.73470E-002   0.00000E+000   0.00000E+000   0.00000E+000   0.73470E-002
   0.87270E-002   0.00000E+000   0.00000E+000   0.00000E+000   0.87270E-002   0.00000E+000   0.00000E+000   0.00000E+000   0.87270E-002
   0.88360E-002   0.00000E+000   0.00000E+000   0.00000E+000   0.88360E-002   0.00000E+000   0.00000E+000   0.00000E+000   0.88360E-002
   0.91000E-002   0.00000E+000   0.00000E+000   0.00000E+000   0.91000E-002   0.00000E+000   0.00000E+000   0.00000E+000   0.91000E-002
   0.90610E-002   0.00000E+000   0.00000E+000   0.00000E+000   0.90610E-002   0.00000E+000   0.00000E+000   0.00000E+000   0.90610E-002
   0.10000E-001   0.00000E+000   0.00000E+000   0.00000E+000   0.10000E-001   0.00000E+000   0.00000E+000   0.00000E+000   0.10000E-001
   0.82440E-002   0.00000E+000   0.00000E+000   0.00000E+000   0.82440E-002   0.00000E+000   0.00000E+000   0.00000E+000   0.82440E-002
   0.82330E-002   0.00000E+000   0.00000E+000   0.00000E+000   0.82330E-002   0.00000E+000   0.00000E+000   0.00000E+000   0.82330E-002
   0.19200E-002   0.00000E+000   0.00000E+000   0.00000E+000   0.19200E-002   0.00000E+000   0.00000E+000   0.00000E+000   0.19200E-002
   0.91600E-003   0.00000E+000   0.00000E+000   0.00000E+000   0.91600E-003   0.00000E+000   0.00000E+000   0.00000E+000   0.91600E-003
   0.18140E-002   0.00000E+000   0.00000E+000   0.00000E+000   0.18140E-002   0.00000E+000   0.00000E+000   0.00000E+000   0.18140E-002
   0.00000E+000   0.00000E+000   0.00000E+000   0.00000E+000   0.00000E+000   0.00000E+000   0.00000E+000   0.00000E+000   0.00000E+000
   0.82370E-002   0.00000E+000   0.00000E+000   0.00000E+000   0.82370E-002   0.00000E+000   0.00000E+000   0.00000E+000   0.82370E-002
   0.82230E-002   0.00000E+000   0.00000E+000   0.00000E+000   0.82230E-002   0.00000E+000   0.00000E+000   0.00000E+000   0.82230E-002
   0.91240E-002   0.00000E+000   0.00000E+000   0.00000E+000   0.91240E-002   0.00000E+000   0.00000E+000   0.00000E+000   0.91240E-002
   0.00000E+000   0.00000E+000   0.00000E+000   0.00000E+000   0.00000E+000   0.00000E+000   0.00000E+000   0.00000E+000   0.00000E+000
   0.90300E-003   0.00000E+000   0.00000E+000   0.00000E+000   0.90300E-003   0.00000E+000   0.00000E+000   0.00000E+000   0.90300E-003
   0.00000E+000   0.00000E+000   0.00000E+000   0.00000E+000   0.00000E+000   0.00000E+000   0.00000E+000   0.00000E+000   0.00000E+000
   0.90700E-003   0.00000E+000   0.00000E+000   0.00000E+000   0.90700E-003   0.00000E+000   0.00000E+000   0.00000E+000   0.90700E-003
   0.18410E-002   0.00000E+000   0.00000E+000   0.00000E+000   0.18410E-002   0.00000E+000   0.00000E+000   0.00000E+000   0.18410E-002
   0.10000E-001   0.00000E+000   0.00000E+000   0.00000E+000   0.10000E-001   0.00000E+000   0.00000E+000   0.00000E+000   0.10000E-001
   0.82540E-002   0.00000E+000   0.00000E+000   0.00000E+000   0.82540E-002   0.00000E+000   0.00000E+000   0.00000E+000   0.82540E-002
   0.91800E-003   0.00000E+000   0.00000E+000   0.00000E+000   0.91800E-003   0.00000E+000   0.00000E+000   0.00000E+000   0.91800E-003
   0.00000E+000   0.00000E+000   0.00000E+000   0.00000E+000   0.00000E+000   0.00000E+000   0.00000E+000   0.00000E+000   0.00000E+000
   0.10000E-001   0.00000E+000   0.00000E+000   0.00000E+000   0.10000E-001   0.00000E+000   0.00000E+000   0.00000E+000   0.10000E-001
   0.89900E-003   0.00000E+000   0.00000E+000   0.00000E+000   0.89900E-003   0.00000E+000   0.00000E+000   0.00000E+000   0.89900E-003
   0.00000E+000   0.00000E+000   0.00000E+000   0.00000E+000   0.00000E+000   0.00000E+000   0.00000E+000   0.00000E+000   0.00000E+000
   0.18060E-002   0.00000E+000   0.00000E+000   0.00000E+000   0.18060E-002   0.00000E+000   0.00000E+000   0.00000E+000   0.18060E-002
   0.82540E-002   0.00000E+000   0.00000E+000   0.00000E+000   0.82540E-002   0.00000E+000   0.00000E+000   0.00000E+000   0.82540E-002
   0.91290E-002   0.00000E+000   0.00000E+000   0.00000E+000   0.91290E-002   0.00000E+000   0.00000E+000   0.00000E+000   0.91290E-002
   0.60300E-003   0.00000E+000   0.00000E+000   0.00000E+000   0.60300E-003   0.00000E+000   0.00000E+000   0.00000E+000   0.60300E-003
   0.00000E+000   0.00000E+000   0.00000E+000   0.00000E+000   0.00000E+000   0.00000E+000   0.00000E+000   0.00000E+000   0.00000E+000
   0.00000E+000   0.00000E+000   0.00000E+000   0.00000E+000   0.00000E+000   0.00000E+000   0.00000E+000   0.00000E+000   0.00000E+000
   0.64360E-002   0.00000E+000   0.00000E+000   0.00000E+000   0.64360E-002   0.00000E+000   0.00000E+000   0.00000E+000   0.64360E-002
   0.55080E-002   0.00000E+000   0.00000E+000   0.00000E+000   0.55080E-002   0.00000E+000   0.00000E+000   0.00000E+000   0.55080E-002
   0.10000E-001   0.00000E+000   0.00000E+000   0.00000E+000   0.10000E-001   0.00000E+000   0.00000E+000   0.00000E+000   0.10000E-001
   0.81650E-002   0.00000E+000   0.00000E+000   0.00000E+000   0.81650E-002   0.00000E+000   0.00000E+000   0.00000E+000   0.81650E-002
   0.82690E-002   0.00000E+000   0.00000E+000   0.00000E+000   0.82690E-002   0.00000E+000   0.00000E+000   0.00000E+000   0.82690E-002
   0.74070E-002   0.00000E+000   0.00000E+000   0.00000E+000   0.74070E-002   0.00000E+000   0.00000E+000   0.00000E+000   0.74070E-002
   0.70670E-002   0.00000E+000   0.00000E+000   0.00000E+000   0.70670E-002   0.00000E+000   0.00000E+000   0.00000E+000   0.70670E-002
   0.63530E-002   0.00000E+000   0.00000E+000   0.00000E+000   0.63530E-002   0.00000E+000   0.00000E+000   0.00000E+000   0.63530E-002
   0.10000E-001   0.00000E+000   0.00000E+000   0.00000E+000   0.10000E-001   0.00000E+000   0.00000E+000   0.00000E+000   0.10000E-001
   0.10000E-001   0.00000E+000   0.00000E+000   0.00000E+000   0.10000E-001   0.00000E+000   0.00000E+000   0.00000E+000   0.10000E-001
   0.10000E-001   0.00000E+000   0.00000E+000   0.00000E+000   0.10000E-001   0.00000E+000   0.00000E+000   0.00000E+000   0.10000E-001
   0.36460E-002   0.00000E+000   0.00000E+000   0.00000E+000   0.36460E-002   0.00000E+000   0.00000E+000   0.00000E+000   0.36460E-002
   0.64390E-002   0.00000E+000   0.00000E+000   0.00000E+000   0.64390E-002   0.00000E+000   0.00000E+000   0.00000E+000   0.64390E-002
   0.10000E-001   0.00000E+000   0.00000E+000   0.00000E+000   0.10000E-001   0.00000E+000   0.00000E+000   0.00000E+000   0.10000E-001
   0.10000E-001   0.00000E+000   0.00000E+000   0.00000E+000   0.10000E-001   0.00000E+000   0.00000E+000   0.00000E+000   0.10000E-001
   0.54580E-002   0.00000E+000   0.00000E+000   0.00000E+000   0.54580E-002   0.00000E+000   0.00000E+000   0.00000E+000   0.54580E-002
   0.91110E-002   0.00000E+000   0.00000E+000   0.00000E+000   0.91110E-002   0.00000E+000   0.00000E+000   0.00000E+000   0.91110E-002
   0.00000E+000   0.00000E+000   0.00000E+000   0.00000E+000   0.00000E+000   0.00000E+000   0.00000E+000   0.00000E+000   0.00000E+000
   0.10000E-001   0.00000E+000   0.00000E+000   0.00000E+000   0.10000E-001   0.00000E+000   0.00000E+000   0.00000E+000   0.10000E-001
   0.91320E-002   0.00000E+000   0.00000E+000   0.00000E+000   0.91320E-002   0.00000E+000   0.00000E+000   0.00000E+000   0.91320E-002
   0.10000E-001   0.00000E+000   0.00000E+000   0.00000E+000   0.10000E-001   0.00000E+000   0.00000E+000   0.00000E+000   0.10000E-001
   0.64200E-002   0.00000E+000   0.00000E+000   0.00000E+000   0.64200E-002   0.00000E+000   0.00000E+000   0.00000E+000   0.64200E-002
   0.55730E-002   0.00000E+000   0.00000E+000   0.00000E+000   0.55730E-002   0.00000E+000   0.00000E+000   0.00000E+000   0.55730E-002
   0.74030E-002   0.00000E+000   0.00000E+000   0.00000E+000   0.74030E-002   0.00000E+000   0.00000E+000   0.00000E+000   0.74030E-002
   0.73320E-002   0.00000E+000   0.00000E+000   0.00000E+000   0.73320E-002   0.00000E+000   0.00000E+000   0.00000E+000   0.73320E-002
   0.82510E-002   0.00000E+000   0.00000E+000   0.00000E+000   0.82510E-002   0.00000E+000   0.00000E+000   0.00000E+000   0.82510E-002
   0.73050E-002   0.00000E+000   0.00000E+000   0.00000E+000   0.73050E-002   0.00000E+000   0.00000E+000   0.00000E+000   0.73050E-002
   0.10000E-001   0.00000E+000   0.00000E+000   0.00000E+000   0.10000E-001   0.00000E+000   0.00000E+000   0.00000E+000   0.10000E-001
   0.50050E-002   0.00000E+000   0.00000E+000   0.00000E+000   0.50050E-002   0.00000E+000   0.00000E+000   0.00000E+000   0.50050E-002
   0.00000E+000   0.00000E+000   0.00000E+000   0.00000E+000   0.00000E+000   0.00000E+000   0.00000E+000   0.00000E+000   0.00000E+000
   0.00000E+000   0.00000E+000   0.00000E+000   0.00000E+000   0.00000E+000   0.00000E+000   0.00000E+000   0.00000E+000   0.00000E+000
   0.57800E-002   0.00000E+000   0.00000E+000   0.00000E+000   0.57800E-002   0.00000E+000   0.00000E+000   0.00000E+000   0.57800E-002
   0.90000E-002   0.00000E+000   0.00000E+000   0.00000E+000   0.90000E-002   0.00000E+000   0.00000E+000   0.00000E+000   0.90000E-002
   0.65330E-002   0.00000E+000   0.00000E+000   0.00000E+000   0.65330E-002   0.00000E+000   0.00000E+000   0.00000E+000   0.65330E-002
   0.73790E-002   0.00000E+000   0.00000E+000   0.00000E+000   0.73790E-002   0.00000E+000   0.00000E+000   0.00000E+000   0.73790E-002
   0.10000E-001   0.00000E+000   0.00000E+000   0.00000E+000   0.10000E-001   0.00000E+000   0.00000E+000   0.00000E+000   0.10000E-001
   0.82610E-002   0.00000E+000   0.00000E+000   0.00000E+000   0.82610E-002   0.00000E+000   0.00000E+000   0.00000E+000   0.82610E-002
   0.82500E-002   0.00000E+000   0.00000E+000   0.00000E+000   0.82500E-002   0.00000E+000   0.00000E+000   0.00000E+000   0.82500E-002
   0.25690E-002   0.00000E+000   0.00000E+000   0.00000E+000   0.25690E-002   0.00000E+000   0.00000E+000   0.00000E+000   0.25690E-002
   0.45220E-002   0.00000E+000   0.00000E+000   0.00000E+000   0.45220E-002   0.00000E+000   0.00000E+000   0.00000E+000   0.45220E-002
   0.34570E-002   0.00000E+000   0.00000E+000   0.00000E+000   0.34570E-002   0.00000E+000   0.00000E+000   0.00000E+000   0.34570E-002
   0.74840E-002   0.00000E+000   0.00000E+000   0.00000E+000   0.74840E-002   0.00000E+000   0.00000E+000   0.00000E+000   0.74840E-002
   0.55240E-002   0.00000E+000   0.00000E+000   0.00000E+000   0.55240E-002   0.00000E+000   0.00000E+000   0.00000E+000   0.55240E-002
   0.40000E-002   0.00000E+000   0.00000E+000   0.00000E+000   0.40000E-002   0.00000E+000   0.00000E+000   0.00000E+000   0.40000E-002
   0.65060E-002   0.00000E+000   0.00000E+000   0.00000E+000   0.65060E-002   0.00000E+000   0.00000E+000   0.00000E+000   0.65060E-002
   0.00000E+000   0.00000E+000   0.00000E+000   0.00000E+000   0.00000E+000   0.00000E+000   0.00000E+000   0.00000E+000   0.00000E+000
   0.64230E-002   0.00000E+000   0.00000E+000   0.00000E+000   0.64230E-002   0.00000E+000   0.00000E+000   0.00000E+000   0.64230E-002
   0.20000E-002   0.00000E+000   0.00000E+000   0.00000E+000   0.20000E-002   0.00000E+000   0.00000E+000   0.00000E+000   0.20000E-002
   0.65490E-002   0.00000E+000   0.00000E+000   0.00000E+000   0.65490E-002   0.00000E+000   0.00000E+000   0.00000E+000   0.65490E-002
   0.45580E-002   0.00000E+000   0.00000E+000   0.00000E+000   0.45580E-002   0.00000E+000   0.00000E+000   0.00000E+000   0.45580E-002
   0.10000E-001   0.00000E+000   0.00000E+000   0.00000E+000   0.10000E-001   0.00000E+000   0.00000E+000   0.00000E+000   0.10000E-001
   0.00000E+000   0.00000E+000   0.00000E+000   0.00000E+000   0.00000E+000   0.00000E+000   0.00000E+000   0.00000E+000   0.00000E+000
   0.27710E-002   0.00000E+000   0.00000E+000   0.00000E+000   0.27710E-002   0.00000E+000   0.00000E+000   0.00000E+000   0.27710E-002
   0.00000E+000   0.00000E+000   0.00000E+000   0.00000E+000   0.00000E+000   0.00000E+000   0.00000E+000   0.00000E+000   0.00000E+000
   0.10000E-001   0.00000E+000   0.00000E+000   0.00000E+000   0.10000E-001   0.00000E+000   0.00000E+000   0.00000E+000   0.10000E-001
   0.10000E-001   0.00000E+000   0.00000E+000   0.00000E+000   0.10000E-001   0.00000E+000   0.00000E+000   0.00000E+000   0.10000E-001
   0.64400E-002   0.00000E+000   0.00000E+000   0.00000E+000   0.64400E-002   0.00000E+000   0.00000E+000   0.00000E+000   0.64400E-002
   0.74170E-002   0.00000E+000   0.00000E+000   0.00000E+000   0.74170E-002   0.00000E+000   0.00000E+000   0.00000E+000   0.74170E-002
   0.65440E-002   0.00000E+000   0.00000E+000   0.00000E+000   0.65440E-002   0.00000E+000   0.00000E+000   0.00000E+000   0.65440E-002
   0.73420E-002   0.00000E+000   0.00000E+000   0.00000E+000   0.73420E-002   0.00000E+000   0.00000E+000   0.00000E+000   0.73420E-002
   0.41800E-002   0.00000E+000   0.00000E+000   0.00000E+000   0.41800E-002   0.00000E+000   0.00000E+000   0.00000E+000   0.41800E-002
   0.73820E-002   0.00000E+000   0.00000E+000   0.00000E+000   0.73820E-002   0.00000E+000   0.00000E+000   0.00000E+000   0.73820E-002
   0.54980E-002   0.00000E+000   0.00000E+000   0.00000E+000   0.54980E-002   0.00000E+000   0.00000E+000   0.00000E+000   0.54980E-002
   0.10000E-001   0.00000E+000   0.00000E+000   0.00000E+000   0.10000E-001   0.00000E+000   0.00000E+000   0.00000E+000   0.10000E-001
   0.00000E+000   0.00000E+000   0.00000E+000   0.00000E+000   0.00000E+000   0.00000E+000   0.00000E+000   0.00000E+000   0.00000E+000
   0.10000E-001   0.00000E+000   0.00000E+000   0.00000E+000   0.10000E-001   0.00000E+000   0.00000E+000   0.00000E+000   0.10000E-001
   0.80790E-002   0.00000E+000   0.00000E+000   0.00000E+000   0.80790E-002   0.00000E+000   0.00000E+000   0.00000E+000   0.80790E-002
   0.53230E-002   0.00000E+000   0.00000E+000   0.00000E+000   0.53230E-002   0.00000E+000   0.00000E+000   0.00000E+000   0.53230E-002
   0.53820E-002   0.00000E+000   0.00000E+000   0.00000E+000   0.53820E-002   0.00000E+000   0.00000E+000   0.00000E+000   0.53820E-002
   0.60940E-002   0.00000E+000   0.00000E+000   0.00000E+000   0.60940E-002   0.00000E+000   0.00000E+000   0.00000E+000   0.60940E-002
   0.53780E-002   0.00000E+000   0.00000E+000   0.00000E+000   0.53780E-002   0.00000E+000   0.00000E+000   0.00000E+000   0.53780E-002
   0.51920E-002   0.00000E+000   0.00000E+000   0.00000E+000   0.51920E-002   0.00000E+000   0.00000E+000   0.00000E+000   0.51920E-002
   0.46670E-002   0.00000E+000   0.00000E+000   0.00000E+000   0.46670E-002   0.00000E+000   0.00000E+000   0.00000E+000   0.46670E-002
   0.54630E-002   0.00000E+000   0.00000E+000   0.00000E+000   0.54630E-002   0.00000E+000   0.00000E+000   0.00000E+000   0.54630E-002
   0.62030E-002   0.00000E+000   0.00000E+000   0.00000E+000   0.62030E-002   0.00000E+000   0.00000E+000   0.00000E+000   0.62030E-002
   0.62610E-002   0.00000E+000   0.00000E+000   0.00000E+000   0.62610E-002   0.00000E+000   0.00000E+000   0.00000E+000   0.62610E-002
   0.46290E-002   0.00000E+000   0.00000E+000   0.00000E+000   0.46290E-002   0.00000E+000   0.00000E+000   0.00000E+000   0.46290E-002
   0.60710E-002   0.00000E+000   0.00000E+000   0.00000E+000   0.60710E-002   0.00000E+000   0.00000E+000   0.00000E+000   0.60710E-002
   0.58850E-002   0.00000E+000   0.00000E+000   0.00000E+000   0.58850E-002   0.00000E+000   0.00000E+000   0.00000E+000   0.58850E-002
   0.54660E-002   0.00000E+000   0.00000E+000   0.00000E+000   0.54660E-002   0.00000E+000   0.00000E+000   0.00000E+000   0.54660E-002
   0.64930E-002   0.00000E+000   0.00000E+000   0.00000E+000   0.64930E-002   0.00000E+000   0.00000E+000   0.00000E+000   0.64930E-002
   0.56090E-002   0.00000E+000   0.00000E+000   0.00000E+000   0.56090E-002   0.00000E+000   0.00000E+000   0.00000E+000   0.56090E-002
   0.74220E-002   0.00000E+000   0.00000E+000   0.00000E+000   0.74220E-002   0.00000E+000   0.00000E+000   0.00000E+000   0.74220E-002
   0.81620E-002   0.00000E+000   0.00000E+000   0.00000E+000   0.81620E-002   0.00000E+000   0.00000E+000   0.00000E+000   0.81620E-002
   0.81360E-002   0.00000E+000   0.00000E+000   0.00000E+000   0.81360E-002   0.00000E+000   0.00000E+000   0.00000E+000   0.81360E-002
   0.84990E-002   0.00000E+000   0.00000E+000   0.00000E+000   0.84990E-002   0.00000E+000   0.00000E+000   0.00000E+000   0.84990E-002
   0.92530E-002   0.00000E+000   0.00000E+000   0.00000E+000   0.92530E-002   0.00000E+000   0.00000E+000   0.00000E+000   0.92530E-002
   0.86570E-002   0.00000E+000   0.00000E+000   0.00000E+000   0.86570E-002   0.00000E+000   0.00000E+000   0.00000E+000   0.86570E-002
   0.85900E-002   0.00000E+000   0.00000E+000   0.00000E+000   0.85900E-002   0.00000E+000   0.00000E+000   0.00000E+000   0.85900E-002
   0.78370E-002   0.00000E+000   0.00000E+000   0.00000E+000   0.78370E-002   0.00000E+000   0.00000E+000   0.00000E+000   0.78370E-002
   0.91520E-002   0.00000E+000   0.00000E+000   0.00000E+000   0.91520E-002   0.00000E+000   0.00000E+000   0.00000E+000   0.91520E-002
   0.79150E-002   0.00000E+000   0.00000E+000   0.00000E+000   0.79150E-002   0.00000E+000   0.00000E+000   0.00000E+000   0.79150E-002
   0.72630E-002   0.00000E+000   0.00000E+000   0.00000E+000   0.72630E-002   0.00000E+000   0.00000E+000   0.00000E+000   0.72630E-002
   0.83600E-002   0.00000E+000   0.00000E+000   0.00000E+000   0.83600E-002   0.00000E+000   0.00000E+000   0.00000E+000   0.83600E-002
   0.75520E-002   0.00000E+000   0.00000E+000   0.00000E+000   0.75520E-002   0.00000E+000   0.00000E+000   0.00000E+000   0.75520E-002
   0.76300E-002   0.00000E+000   0.00000E+000   0.00000E+000   0.76300E-002   0.00000E+000   0.00000E+000   0.00000E+000   0.76300E-002
   0.27030E-002   0.00000E+000   0.00000E+000   0.00000E+000   0.27030E-002   0.00000E+000   0.00000E+000   0.00000E+000   0.27030E-002
   0.18590E-002   0.00000E+000   0.00000E+000   0.00000E+000   0.18590E-002   0.00000E+000   0.00000E+000   0.00000E+000   0.18590E-002
   0.19580E-002   0.00000E+000   0.00000E+000   0.00000E+000   0.19580E-002   0.00000E+000   0.00000E+000   0.00000E+000   0.19580E-002
   0.27880E-002   0.00000E+000   0.00000E+000   0.00000E+000   0.27880E-002   0.00000E+000   0.00000E+000   0.00000E+000   0.27880E-002
   0.24110E-002   0.00000E+000   0.00000E+000   0.00000E+000   0.24110E-002   0.00000E+000   0.00000E+000   0.00000E+000   0.24110E-002
   0.25940E-002   0.00000E+000   0.00000E+000   0.00000E+000   0.25940E-002   0.00000E+000   0.00000E+000   0.00000E+000   0.25940E-002
   0.35470E-002   0.00000E+000   0.00000E+000   0.00000E+000   0.35470E-002   0.00000E+000   0.00000E+000   0.00000E+000   0.35470E-002
   0.35820E-002   0.00000E+000   0.00000E+000   0.00000E+000   0.35820E-002   0.00000E+000   0.00000E+000   0.00000E+000   0.35820E-002
   0.28460E-002   0.00000E+000   0.00000E+000   0.00000E+000   0.28460E-002   0.00000E+000   0.00000E+000   0.00000E+000   0.28460E-002
   0.35020E-002   0.00000E+000   0.00000E+000   0.00000E+000   0.35020E-002   0.00000E+000   0.00000E+000   0.00000E+000   0.35020E-002
   0.79560E-002   0.00000E+000   0.00000E+000   0.00000E+000   0.79560E-002   0.00000E+000   0.00000E+000   0.00000E+000   0.79560E-002
   0.81860E-002   0.00000E+000   0.00000E+000   0.00000E+000   0.81860E-002   0.00000E+000   0.00000E+000   0.00000E+000   0.81860E-002
   0.72650E-002   0.00000E+000   0.00000E+000   0.00000E+000   0.72650E-002   0.00000E+000   0.00000E+000   0.00000E+000   0.72650E-002
   0.72510E-002   0.00000E+000   0.00000E+000   0.00000E+000   0.72510E-002   0.00000E+000   0.00000E+000   0.00000E+000   0.72510E-002
   0.13180E-002   0.00000E+000   0.00000E+000   0.00000E+000   0.13180E-002   0.00000E+000   0.00000E+000   0.00000E+000   0.13180E-002
   0.19540E-002   0.00000E+000   0.00000E+000   0.00000E+000   0.19540E-002   0.00000E+000   0.00000E+000   0.00000E+000   0.19540E-002
   0.13210E-002   0.00000E+000   0.00000E+000   0.00000E+000   0.13210E-002   0.00000E+000   0.00000E+000   0.00000E+000   0.13210E-002
   0.13400E-002   0.00000E+000   0.00000E+000   0.00000E+000   0.13400E-002   0.00000E+000   0.00000E+000   0.00000E+000   0.13400E-002
   0.12660E-002   0.00000E+000   0.00000E+000   0.00000E+000   0.12660E-002   0.00000E+000   0.00000E+000   0.00000E+000   0.12660E-002
   0.65500E-003   0.00000E+000   0.00000E+000   0.00000E+000   0.65500E-003   0.00000E+000   0.00000E+000   0.00000E+000   0.65500E-003
   0.14070E-002   0.00000E+000   0.00000E+000   0.00000E+000   0.14070E-002   0.00000E+000   0.00000E+000   0.00000E+000   0.14070E-002
   0.63600E-003   0.00000E+000   0.00000E+000   0.00000E+000   0.63600E-003   0.00000E+000   0.00000E+000   0.00000E+000   0.63600E-003
   0.00000E+000   0.00000E+000   0.00000E+000   0.00000E+000   0.00000E+000   0.00000E+000   0.00000E+000   0.00000E+000   0.00000E+000
   0.13210E-002   0.00000E+000   0.00000E+000   0.00000E+000   0.13210E-002   0.00000E+000   0.00000E+000   0.00000E+000   0.13210E-002
   0.21040E-002   0.00000E+000   0.00000E+000   0.00000E+000   0.21040E-002   0.00000E+000   0.00000E+000   0.00000E+000   0.21040E-002
   0.14630E-002   0.00000E+000   0.00000E+000   0.00000E+000   0.14630E-002   0.00000E+000   0.00000E+000   0.00000E+000   0.14630E-002
   0.60100E-003   0.00000E+000   0.00000E+000   0.00000E+000   0.60100E-003   0.00000E+000   0.00000E+000   0.00000E+000   0.60100E-003
   0.38370E-002   0.00000E+000   0.00000E+000   0.00000E+000   0.38370E-002   0.00000E+000   0.00000E+000   0.00000E+000   0.38370E-002
   0.31210E-002   0.00000E+000   0.00000E+000   0.00000E+000   0.31210E-002   0.00000E+000   0.00000E+000   0.00000E+000   0.31210E-002
   0.32060E-002   0.00000E+000   0.00000E+000   0.00000E+000   0.32060E-002   0.00000E+000   0.00000E+000   0.00000E+000   0.32060E-002
   0.26300E-002   0.00000E+000   0.00000E+000   0.00000E+000   0.26300E-002   0.00000E+000   0.00000E+000   0.00000E+000   0.26300E-002
   0.21400E-002   0.00000E+000   0.00000E+000   0.00000E+000   0.21400E-002   0.00000E+000   0.00000E+000   0.00000E+000   0.21400E-002
   0.25660E-002   0.00000E+000   0.00000E+000   0.00000E+000   0.25660E-002   0.00000E+000   0.00000E+000   0.00000E+000   0.25660E-002
   0.26370E-002   0.00000E+000   0.00000E+000   0.00000E+000   0.26370E-002   0.00000E+000   0.00000E+000   0.00000E+000   0.26370E-002
   0.33160E-002   0.00000E+000   0.00000E+000   0.00000E+000   0.33160E-002   0.00000E+000   0.00000E+000   0.00000E+000   0.33160E-002
   0.26040E-002   0.00000E+000   0.00000E+000   0.00000E+000   0.26040E-002   0.00000E+000   0.00000E+000   0.00000E+000   0.26040E-002
   0.80080E-002   0.00000E+000   0.00000E+000   0.00000E+000   0.80080E-002   0.00000E+000   0.00000E+000   0.00000E+000   0.80080E-002
   0.72270E-002   0.00000E+000   0.00000E+000   0.00000E+000   0.72270E-002   0.00000E+000   0.00000E+000   0.00000E+000   0.72270E-002
   0.79710E-002   0.00000E+000   0.00000E+000   0.00000E+000   0.79710E-002   0.00000E+000   0.00000E+000   0.00000E+000   0.79710E-002
   0.71090E-002   0.00000E+000   0.00000E+000   0.00000E+000   0.71090E-002   0.00000E+000   0.00000E+000   0.00000E+000   0.71090E-002
   0.66980E-002   0.00000E+000   0.00000E+000   0.00000E+000   0.66980E-002   0.00000E+000   0.00000E+000   0.00000E+000   0.66980E-002
   0.72070E-002   0.00000E+000   0.00000E+000   0.00000E+000   0.72070E-002   0.00000E+000   0.00000E+000   0.00000E+000   0.72070E-002
   0.39890E-002   0.00000E+000   0.00000E+000   0.00000E+000   0.39890E-002   0.00000E+000   0.00000E+000   0.00000E+000   0.39890E-002
   0.40920E-002   0.00000E+000   0.00000E+000   0.00000E+000   0.40920E-002   0.00000E+000   0.00000E+000   0.00000E+000   0.40920E-002
   0.45290E-002   0.00000E+000   0.00000E+000   0.00000E+000   0.45290E-002   0.00000E+000   0.00000E+000   0.00000E+000   0.45290E-002
   0.46210E-002   0.00000E+000   0.00000E+000   0.00000E+000   0.46210E-002   0.00000E+000   0.00000E+000   0.00000E+000   0.46210E-002
   0.34240E-002   0.00000E+000   0.00000E+000   0.00000E+000   0.34240E-002   0.00000E+000   0.00000E+000   0.00000E+000   0.34240E-002
   0.44490E-002   0.00000E+000   0.00000E+000   0.00000E+000   0.44490E-002   0.00000E+000   0.00000E+000   0.00000E+000   0.44490E-002
   0.35200E-002   0.00000E+000   0.00000E+000   0.00000E+000   0.35200E-002   0.00000E+000   0.00000E+000   0.00000E+000   0.35200E-002
   0.37200E-002   0.00000E+000   0.00000E+000   0.00000E+000   0.37200E-002   0.00000E+000   0.00000E+000   0.00000E+000   0.37200E-002
   0.33950E-002   0.00000E+000   0.00000E+000   0.00000E+000   0.33950E-002   0.00000E+000   0.00000E+000   0.00000E+000   0.33950E-002
   0.41530E-002   0.00000E+000   0.00000E+000   0.00000E+000   0.41530E-002   0.00000E+000   0.00000E+000   0.00000E+000   0.41530E-002
   0.62300E-003   0.00000E+000   0.00000E+000   0.00000E+000   0.62300E-003   0.00000E+000   0.00000E+000   0.00000E+000   0.62300E-003
   0.00000E+000   0.00000E+000   0.00000E+000   0.00000E+000   0.00000E+000   0.00000E+000   0.00000E+000   0.00000E+000   0.00000E+000
   0.00000E+000   0.00000E+000   0.00000E+000   0.00000E+000   0.00000E+000   0.00000E+000   0.00000E+000   0.00000E+000   0.00000E+000
   0.00000E+000   0.00000E+000   0.00000E+000   0.00000E+000   0.00000E+000   0.00000E+000   0.00000E+000   0.00000E+000   0.00000E+000
   0.35420E-002   0.00000E+000   0.00000E+000   0.00000E+000   0.35420E-002   0.00000E+000   0.00000E+000   0.00000E+000   0.35420E-002
   0.46790E-002   0.00000E+000   0.00000E+000   0.00000E+000   0.46790E-002   0.00000E+000   0.00000E+000   0.00000E+000   0.46790E-002
   0.19180E-002   0.00000E+000   0.00000E+000   0.00000E+000   0.19180E-002   0.00000E+000   0.00000E+000   0.00000E+000   0.19180E-002
   0.33790E-002   0.00000E+000   0.00000E+000   0.00000E+000   0.33790E-002   0.00000E+000   0.00000E+000   0.00000E+000   0.33790E-002
   0.20370E-002   0.00000E+000   0.00000E+000   0.00000E+000   0.20370E-002   0.00000E+000   0.00000E+000   0.00000E+000   0.20370E-002
   0.21390E-002   0.00000E+000   0.00000E+000   0.00000E+000   0.21390E-002   0.00000E+000   0.00000E+000   0.00000E+000   0.21390E-002
   0.23390E-002   0.00000E+000   0.00000E+000   0.00000E+000   0.23390E-002   0.00000E+000   0.00000E+000   0.00000E+000   0.23390E-002
   0.27000E-002   0.00000E+000   0.00000E+000   0.00000E+000   0.27000E-002   0.00000E+000   0.00000E+000   0.00000E+000   0.27000E-002
   0.28230E-002   0.00000E+000   0.00000E+000   0.00000E+000   0.28230E-002   0.00000E+000   0.00000E+000   0.00000E+000   0.28230E-002
   0.19700E-002   0.00000E+000   0.00000E+000   0.00000E+000   0.19700E-002   0.00000E+000   0.00000E+000   0.00000E+000   0.19700E-002
   0.24970E-002   0.00000E+000   0.00000E+000   0.00000E+000   0.24970E-002   0.00000E+000   0.00000E+000   0.00000E+000   0.24970E-002
   0.21510E-002   0.00000E+000   0.00000E+000   0.00000E+000   0.21510E-002   0.00000E+000   0.00000E+000   0.00000E+000   0.21510E-002
   0.13790E-002   0.00000E+000   0.00000E+000   0.00000E+000   0.13790E-002   0.00000E+000   0.00000E+000   0.00000E+000   0.13790E-002
   0.88320E-002   0.00000E+000   0.00000E+000   0.00000E+000   0.88320E-002   0.00000E+000   0.00000E+000   0.00000E+000   0.88320E-002
   0.81710E-002   0.00000E+000   0.00000E+000   0.00000E+000   0.81710E-002   0.00000E+000   0.00000E+000   0.00000E+000   0.81710E-002
   0.90960E-002   0.00000E+000   0.00000E+000   0.00000E+000   0.90960E-002   0.00000E+000   0.00000E+000   0.00000E+000   0.90960E-002
   0.31880E-002   0.00000E+000   0.00000E+000   0.00000E+000   0.31880E-002   0.00000E+000   0.00000E+000   0.00000E+000   0.31880E-002
   0.19440E-002   0.00000E+000   0.00000E+000   0.00000E+000   0.19440E-002   0.00000E+000   0.00000E+000   0.00000E+000   0.19440E-002
   0.72550E-002   0.00000E+000   0.00000E+000   0.00000E+000   0.72550E-002   0.00000E+000   0.00000E+000   0.00000E+000   0.72550E-002
   0.25520E-002   0.00000E+000   0.00000E+000   0.00000E+000   0.25520E-002   0.00000E+000   0.00000E+000   0.00000E+000   0.25520E-002
   0.44080E-002   0.00000E+000   0.00000E+000   0.00000E+000   0.44080E-002   0.00000E+000   0.00000E+000   0.00000E+000   0.44080E-002
   0.53900E-002   0.00000E+000   0.00000E+000   0.00000E+000   0.53900E-002   0.00000E+000   0.00000E+000   0.00000E+000   0.53900E-002
   0.44760E-002   0.00000E+000   0.00000E+000   0.00000E+000   0.44760E-002   0.00000E+000   0.00000E+000   0.00000E+000   0.44760E-002
   0.79900E-002   0.00000E+000   0.00000E+000   0.00000E+000   0.79900E-002   0.00000E+000   0.00000E+000   0.00000E+000   0.79900E-002
   0.55760E-002   0.00000E+000   0.00000E+000   0.00000E+000   0.55760E-002   0.00000E+000   0.00000E+000   0.00000E+000   0.55760E-002
   0.56120E-002   0.00000E+000   0.00000E+000   0.00000E+000   0.56120E-002   0.00000E+000   0.00000E+000   0.00000E+000   0.56120E-002
   0.54650E-002   0.00000E+000   0.00000E+000   0.00000E+000   0.54650E-002   0.00000E+000   0.00000E+000   0.00000E+000   0.54650E-002
   0.64010E-002   0.00000E+000   0.00000E+000   0.00000E+000   0.64010E-002   0.00000E+000   0.00000E+000   0.00000E+000   0.64010E-002
   0.46860E-002   0.00000E+000   0.00000E+000   0.00000E+000   0.46860E-002   0.00000E+000   0.00000E+000   0.00000E+000   0.46860E-002
   0.64170E-002   0.00000E+000   0.00000E+000   0.00000E+000   0.64170E-002   0.00000E+000   0.00000E+000   0.00000E+000   0.64170E-002
   0.63620E-002   0.00000E+000   0.00000E+000   0.00000E+000   0.63620E-002   0.00000E+000   0.00000E+000   0.00000E+000   0.63620E-002
   0.35490E-002   0.00000E+000   0.00000E+000   0.00000E+000   0.35490E-002   0.00000E+000   0.00000E+000   0.00000E+000   0.35490E-002
   0.56880E-002   0.00000E+000   0.00000E+000   0.00000E+000   0.56880E-002   0.00000E+000   0.00000E+000   0.00000E+000   0.56880E-002
   0.57110E-002   0.00000E+000   0.00000E+000   0.00000E+000   0.57110E-002   0.00000E+000   0.00000E+000   0.00000E+000   0.57110E-002
   0.80080E-002   0.00000E+000   0.00000E+000   0.00000E+000   0.80080E-002   0.00000E+000   0.00000E+000   0.00000E+000   0.80080E-002
   0.72730E-002   0.00000E+000   0.00000E+000   0.00000E+000   0.72730E-002   0.00000E+000   0.00000E+000   0.00000E+000   0.72730E-002
   0.81900E-002   0.00000E+000   0.00000E+000   0.00000E+000   0.81900E-002   0.00000E+000   0.00000E+000   0.00000E+000   0.81900E-002
   0.81860E-002   0.00000E+000   0.00000E+000   0.00000E+000   0.81860E-002   0.00000E+000   0.00000E+000   0.00000E+000   0.81860E-002
   0.22890E-002   0.00000E+000   0.00000E+000   0.00000E+000   0.22890E-002   0.00000E+000   0.00000E+000   0.00000E+000   0.22890E-002
   0.25640E-002   0.00000E+000   0.00000E+000   0.00000E+000   0.25640E-002   0.00000E+000   0.00000E+000   0.00000E+000   0.25640E-002
   0.32180E-002   0.00000E+000   0.00000E+000   0.00000E+000   0.32180E-002   0.00000E+000   0.00000E+000   0.00000E+000   0.32180E-002
   0.55130E-002   0.00000E+000   0.00000E+000   0.00000E+000   0.55130E-002   0.00000E+000   0.00000E+000   0.00000E+000   0.55130E-002
   0.54300E-002   0.00000E+000   0.00000E+000   0.00000E+000   0.54300E-002   0.00000E+000   0.00000E+000   0.00000E+000   0.54300E-002
   0.63540E-002   0.00000E+000   0.00000E+000   0.00000E+000   0.63540E-002   0.00000E+000   0.00000E+000   0.00000E+000   0.63540E-002
   0.54420E-002   0.00000E+000   0.00000E+000   0.00000E+000   0.54420E-002   0.00000E+000   0.00000E+000   0.00000E+000   0.54420E-002
   0.80500E-003   0.00000E+000   0.00000E+000   0.00000E+000   0.80500E-003   0.00000E+000   0.00000E+000   0.00000E+000   0.80500E-003
   0.13540E-002   0.00000E+000   0.00000E+000   0.00000E+000   0.13540E-002   0.00000E+000   0.00000E+000   0.00000E+000   0.13540E-002
   0.23570E-002   0.00000E+000   0.00000E+000   0.00000E+000   0.23570E-002   0.00000E+000   0.00000E+000   0.00000E+000   0.23570E-002
   0.27090E-002   0.00000E+000   0.00000E+000   0.00000E+000   0.27090E-002   0.00000E+000   0.00000E+000   0.00000E+000   0.27090E-002
   0.19460E-002   0.00000E+000   0.00000E+000   0.00000E+000   0.19460E-002   0.00000E+000   0.00000E+000   0.00000E+000   0.19460E-002
   0.55800E-002   0.00000E+000   0.00000E+000   0.00000E+000   0.55800E-002   0.00000E+000   0.00000E+000   0.00000E+000   0.55800E-002
   0.57260E-002   0.00000E+000   0.00000E+000   0.00000E+000   0.57260E-002   0.00000E+000   0.00000E+000   0.00000E+000   0.57260E-002
   0.49350E-002   0.00000E+000   0.00000E+000   0.00000E+000   0.49350E-002   0.00000E+000   0.00000E+000   0.00000E+000   0.49350E-002
   0.47820E-002   0.00000E+000   0.00000E+000   0.00000E+000   0.47820E-002   0.00000E+000   0.00000E+000   0.00000E+000   0.47820E-002
   0.55100E-002   0.00000E+000   0.00000E+000   0.00000E+000   0.55100E-002   0.00000E+000   0.00000E+000   0.00000E+000   0.55100E-002
   0.64020E-002   0.00000E+000   0.00000E+000   0.00000E+000   0.64020E-002   0.00000E+000   0.00000E+000   0.00000E+000   0.64020E-002
   0.51390E-002   0.00000E+000   0.00000E+000   0.00000E+000   0.51390E-002   0.00000E+000   0.00000E+000   0.00000E+000   0.51390E-002
   0.48290E-002   0.00000E+000   0.00000E+000   0.00000E+000   0.48290E-002   0.00000E+000   0.00000E+000   0.00000E+000   0.48290E-002
   0.62830E-002   0.00000E+000   0.00000E+000   0.00000E+000   0.62830E-002   0.00000E+000   0.00000E+000   0.00000E+000   0.62830E-002
   0.66110E-002   0.00000E+000   0.00000E+000   0.00000E+000   0.66110E-002   0.00000E+000   0.00000E+000   0.00000E+000   0.66110E-002
   0.53400E-002   0.00000E+000   0.00000E+000   0.00000E+000   0.53400E-002   0.00000E+000   0.00000E+000   0.00000E+000   0.53400E-002
   0.60520E-002   0.00000E+000   0.00000E+000   0.00000E+000   0.60520E-002   0.00000E+000   0.00000E+000   0.00000E+000   0.60520E-002
   0.37580E-002   0.00000E+000   0.00000E+000   0.00000E+000   0.37580E-002   0.00000E+000   0.00000E+000   0.00000E+000   0.37580E-002
   0.34990E-002   0.00000E+000   0.00000E+000   0.00000E+000   0.34990E-002   0.00000E+000   0.00000E+000   0.00000E+000   0.34990E-002
   0.19110E-002   0.00000E+000   0.00000E+000   0.00000E+000   0.19110E-002   0.00000E+000   0.00000E+000   0.00000E+000   0.19110E-002
   0.00000E+000   0.00000E+000   0.00000E+000   0.00000E+000   0.00000E+000   0.00000E+000   0.00000E+000   0.00000E+000   0.00000E+000
   0.64150E-002   0.00000E+000   0.00000E+000   0.00000E+000   0.64150E-002   0.00000E+000   0.00000E+000   0.00000E+000   0.64150E-002
   0.53030E-002   0.00000E+000   0.00000E+000   0.00000E+000   0.53030E-002   0.00000E+000   0.00000E+000   0.00000E+000   0.53030E-002
   0.43320E-002   0.00000E+000   0.00000E+000   0.00000E+000   0.43320E-002   0.00000E+000   0.00000E+000   0.00000E+000   0.43320E-002
   0.63650E-002   0.00000E+000   0.00000E+000   0.00000E+000   0.63650E-002   0.00000E+000   0.00000E+000   0.00000E+000   0.63650E-002
   0.47910E-002   0.00000E+000   0.00000E+000   0.00000E+000   0.47910E-002   0.00000E+000   0.00000E+000   0.00000E+000   0.47910E-002
   0.45210E-002   0.00000E+000   0.00000E+000   0.00000E+000   0.45210E-002   0.00000E+000   0.00000E+000   0.00000E+000   0.45210E-002
   0.45420E-002   0.00000E+000   0.00000E+000   0.00000E+000   0.45420E-002   0.00000E+000   0.00000E+000   0.00000E+000   0.45420E-002
   0.62760E-002   0.00000E+000   0.00000E+000   0.00000E+000   0.62760E-002   0.00000E+000   0.00000E+000   0.00000E+000   0.62760E-002
   0.77400E-002   0.00000E+000   0.00000E+000   0.00000E+000   0.77400E-002   0.00000E+000   0.00000E+000   0.00000E+000   0.77400E-002
   0.72930E-002   0.00000E+000   0.00000E+000   0.00000E+000   0.72930E-002   0.00000E+000   0.00000E+000   0.00000E+000   0.72930E-002
   0.73490E-002   0.00000E+000   0.00000E+000   0.00000E+000   0.73490E-002   0.00000E+000   0.00000E+000   0.00000E+000   0.73490E-002
   0.72010E-002   0.00000E+000   0.00000E+000   0.00000E+000   0.72010E-002   0.00000E+000   0.00000E+000   0.00000E+000   0.72010E-002
   0.72240E-002   0.00000E+000   0.00000E+000   0.00000E+000   0.72240E-002   0.00000E+000   0.00000E+000   0.00000E+000   0.72240E-002
   0.79730E-002   0.00000E+000   0.00000E+000   0.00000E+000   0.79730E-002   0.00000E+000   0.00000E+000   0.00000E+000   0.79730E-002
   0.82040E-002   0.00000E+000   0.00000E+000   0.00000E+000   0.82040E-002   0.00000E+000   0.00000E+000   0.00000E+000   0.82040E-002
   0.68340E-002   0.00000E+000   0.00000E+000   0.00000E+000   0.68340E-002   0.00000E+000   0.00000E+000   0.00000E+000   0.68340E-002
   0.80790E-002   0.00000E+000   0.00000E+000   0.00000E+000   0.80790E-002   0.00000E+000   0.00000E+000   0.00000E+000   0.80790E-002
   0.82280E-002   0.00000E+000   0.00000E+000   0.00000E+000   0.82280E-002   0.00000E+000   0.00000E+000   0.00000E+000   0.82280E-002
   0.86700E-002   0.00000E+000   0.00000E+000   0.00000E+000   0.86700E-002   0.00000E+000   0.00000E+000   0.00000E+000   0.86700E-002
   0.79820E-002   0.00000E+000   0.00000E+000   0.00000E+000   0.79820E-002   0.00000E+000   0.00000E+000   0.00000E+000   0.79820E-002
   0.93080E-002   0.00000E+000   0.00000E+000   0.00000E+000   0.93080E-002   0.00000E+000   0.00000E+000   0.00000E+000   0.93080E-002
   0.83180E-002   0.00000E+000   0.00000E+000   0.00000E+000   0.83180E-002   0.00000E+000   0.00000E+000   0.00000E+000   0.83180E-002
   0.93410E-002   0.00000E+000   0.00000E+000   0.00000E+000   0.93410E-002   0.00000E+000   0.00000E+000   0.00000E+000   0.93410E-002
   0.86100E-002   0.00000E+000   0.00000E+000   0.00000E+000   0.86100E-002   0.00000E+000   0.00000E+000   0.00000E+000   0.86100E-002
   0.72620E-002   0.00000E+000   0.00000E+000   0.00000E+000   0.72620E-002   0.00000E+000   0.00000E+000   0.00000E+000   0.72620E-002
   0.93220E-002   0.00000E+000   0.00000E+000   0.00000E+000   0.93220E-002   0.00000E+000   0.00000E+000   0.00000E+000   0.93220E-002
   0.10000E-001   0.00000E+000   0.00000E+000   0.00000E+000   0.10000E-001   0.00000E+000   0.00000E+000   0.00000E+000   0.10000E-001
   0.10000E-001   0.00000E+000   0.00000E+000   0.00000E+000   0.10000E-001   0.00000E+000   0.00000E+000   0.00000E+000   0.10000E-001
   0.92020E-002   0.00000E+000   0.00000E+000   0.00000E+000   0.92020E-002   0.00000E+000   0.00000E+000   0.00000E+000   0.92020E-002
   0.16290E-002   0.00000E+000   0.00000E+000   0.00000E+000   0.16290E-002   0.00000E+000   0.00000E+000   0.00000E+000   0.16290E-002
   0.88330E-002   0.00000E+000   0.00000E+000   0.00000E+000   0.88330E-002   0.00000E+000   0.00000E+000   0.00000E+000   0.88330E-002
   0.88190E-002   0.00000E+000   0.00000E+000   0.00000E+000   0.88190E-002   0.00000E+000   0.00000E+000   0.00000E+000   0.88190E-002
   0.92790E-002   0.00000E+000   0.00000E+000   0.00000E+000   0.92790E-002   0.00000E+000   0.00000E+000   0.00000E+000   0.92790E-002
   0.80440E-002   0.00000E+000   0.00000E+000   0.00000E+000   0.80440E-002   0.00000E+000   0.00000E+000   0.00000E+000   0.80440E-002
   0.80170E-002   0.00000E+000   0.00000E+000   0.00000E+000   0.80170E-002   0.00000E+000   0.00000E+000   0.00000E+000   0.80170E-002
   0.73220E-002   0.00000E+000   0.00000E+000   0.00000E+000   0.73220E-002   0.00000E+000   0.00000E+000   0.00000E+000   0.73220E-002
   0.29010E-002   0.00000E+000   0.00000E+000   0.00000E+000   0.29010E-002   0.00000E+000   0.00000E+000   0.00000E+000   0.29010E-002
   0.25710E-002   0.00000E+000   0.00000E+000   0.00000E+000   0.25710E-002   0.00000E+000   0.00000E+000   0.00000E+000   0.25710E-002
   0.19260E-002   0.00000E+000   0.00000E+000   0.00000E+000   0.19260E-002   0.00000E+000   0.00000E+000   0.00000E+000   0.19260E-002
   0.26430E-002   0.00000E+000   0.00000E+000   0.00000E+000   0.26430E-002   0.00000E+000   0.00000E+000   0.00000E+000   0.26430E-002
   0.40640E-002   0.00000E+000   0.00000E+000   0.00000E+000   0.40640E-002   0.00000E+000   0.00000E+000   0.00000E+000   0.40640E-002
   0.36850E-002   0.00000E+000   0.00000E+000   0.00000E+000   0.36850E-002   0.00000E+000   0.00000E+000   0.00000E+000   0.36850E-002
   0.27300E-002   0.00000E+000   0.00000E+000   0.00000E+000   0.27300E-002   0.00000E+000   0.00000E+000   0.00000E+000   0.27300E-002
   0.36160E-002   0.00000E+000   0.00000E+000   0.00000E+000   0.36160E-002   0.00000E+000   0.00000E+000   0.00000E+000   0.36160E-002
   0.45460E-002   0.00000E+000   0.00000E+000   0.00000E+000   0.45460E-002   0.00000E+000   0.00000E+000   0.00000E+000   0.45460E-002
   0.37430E-002   0.00000E+000   0.00000E+000   0.00000E+000   0.37430E-002   0.00000E+000   0.00000E+000   0.00000E+000   0.37430E-002
   0.94200E-002   0.00000E+000   0.00000E+000   0.00000E+000   0.94200E-002   0.00000E+000   0.00000E+000   0.00000E+000   0.94200E-002
   0.10000E-001   0.00000E+000   0.00000E+000   0.00000E+000   0.10000E-001   0.00000E+000   0.00000E+000   0.00000E+000   0.10000E-001
   0.93740E-002   0.00000E+000   0.00000E+000   0.00000E+000   0.93740E-002   0.00000E+000   0.00000E+000   0.00000E+000   0.93740E-002
   0.10000E-001   0.00000E+000   0.00000E+000   0.00000E+000   0.10000E-001   0.00000E+000   0.00000E+000   0.00000E+000   0.10000E-001
   0.34720E-002   0.00000E+000   0.00000E+000   0.00000E+000   0.34720E-002   0.00000E+000   0.00000E+000   0.00000E+000   0.34720E-002
   0.31520E-002   0.00000E+000   0.00000E+000   0.00000E+000   0.31520E-002   0.00000E+000   0.00000E+000   0.00000E+000   0.31520E-002
   0.79790E-002   0.00000E+000   0.00000E+000   0.00000E+000   0.79790E-002   0.00000E+000   0.00000E+000   0.00000E+000   0.79790E-002
   0.72740E-002   0.00000E+000   0.00000E+000   0.00000E+000   0.72740E-002   0.00000E+000   0.00000E+000   0.00000E+000   0.72740E-002
   0.71280E-002   0.00000E+000   0.00000E+000   0.00000E+000   0.71280E-002   0.00000E+000   0.00000E+000   0.00000E+000   0.71280E-002
   0.87040E-002   0.00000E+000   0.00000E+000   0.00000E+000   0.87040E-002   0.00000E+000   0.00000E+000   0.00000E+000   0.87040E-002
   0.93460E-002   0.00000E+000   0.00000E+000   0.00000E+000   0.93460E-002   0.00000E+000   0.00000E+000   0.00000E+000   0.93460E-002
   0.10000E-001   0.00000E+000   0.00000E+000   0.00000E+000   0.10000E-001   0.00000E+000   0.00000E+000   0.00000E+000   0.10000E-001
   0.86780E-002   0.00000E+000   0.00000E+000   0.00000E+000   0.86780E-002   0.00000E+000   0.00000E+000   0.00000E+000   0.86780E-002
   0.93310E-002   0.00000E+000   0.00000E+000   0.00000E+000   0.93310E-002   0.00000E+000   0.00000E+000   0.00000E+000   0.93310E-002
   0.48820E-002   0.00000E+000   0.00000E+000   0.00000E+000   0.48820E-002   0.00000E+000   0.00000E+000   0.00000E+000   0.48820E-002
   0.34380E-002   0.00000E+000   0.00000E+000   0.00000E+000   0.34380E-002   0.00000E+000   0.00000E+000   0.00000E+000   0.34380E-002
   0.38150E-002   0.00000E+000   0.00000E+000   0.00000E+000   0.38150E-002   0.00000E+000   0.00000E+000   0.00000E+000   0.38150E-002
   0.38640E-002   0.00000E+000   0.00000E+000   0.00000E+000   0.38640E-002   0.00000E+000   0.00000E+000   0.00000E+000   0.38640E-002
   0.18680E-002   0.00000E+000   0.00000E+000   0.00000E+000   0.18680E-002   0.00000E+000   0.00000E+000   0.00000E+000   0.18680E-002
   0.19640E-002   0.00000E+000   0.00000E+000   0.00000E+000   0.19640E-002   0.00000E+000   0.00000E+000   0.00000E+000   0.19640E-002
   0.19190E-002   0.00000E+000   0.00000E+000   0.00000E+000   0.19190E-002   0.00000E+000   0.00000E+000   0.00000E+000   0.19190E-002
   0.11480E-002   0.00000E+000   0.00000E+000   0.00000E+000   0.11480E-002   0.00000E+000   0.00000E+000   0.00000E+000   0.11480E-002
   0.11690E-002   0.00000E+000   0.00000E+000   0.00000E+000   0.11690E-002   0.00000E+000   0.00000E+000   0.00000E+000   0.11690E-002
   0.46270E-002   0.00000E+000   0.00000E+000   0.00000E+000   0.46270E-002   0.00000E+000   0.00000E+000   0.00000E+000   0.46270E-002
   0.43950E-002   0.00000E+000   0.00000E+000   0.00000E+000   0.43950E-002   0.00000E+000   0.00000E+000   0.00000E+000   0.43950E-002
   0.50300E-002   0.00000E+000   0.00000E+000   0.00000E+000   0.50300E-002   0.00000E+000   0.00000E+000   0.00000E+000   0.50300E-002
   0.55820E-002   0.00000E+000   0.00000E+000   0.00000E+000   0.55820E-002   0.00000E+000   0.00000E+000   0.00000E+000   0.55820E-002
   0.56010E-002   0.00000E+000   0.00000E+000   0.00000E+000   0.56010E-002   0.00000E+000   0.00000E+000   0.00000E+000   0.56010E-002
   0.45250E-002   0.00000E+000   0.00000E+000   0.00000E+000   0.45250E-002   0.00000E+000   0.00000E+000   0.00000E+000   0.45250E-002
   0.92420E-002   0.00000E+000   0.00000E+000   0.00000E+000   0.92420E-002   0.00000E+000   0.00000E+000   0.00000E+000   0.92420E-002
   0.81590E-002   0.00000E+000   0.00000E+000   0.00000E+000   0.81590E-002   0.00000E+000   0.00000E+000   0.00000E+000   0.81590E-002
   0.90740E-002   0.00000E+000   0.00000E+000   0.00000E+000   0.90740E-002   0.00000E+000   0.00000E+000   0.00000E+000   0.90740E-002
   0.90820E-002   0.00000E+000   0.00000E+000   0.00000E+000   0.90820E-002   0.00000E+000   0.00000E+000   0.00000E+000   0.90820E-002
   0.41270E-002   0.00000E+000   0.00000E+000   0.00000E+000   0.41270E-002   0.00000E+000   0.00000E+000   0.00000E+000   0.41270E-002
   0.58210E-002   0.00000E+000   0.00000E+000   0.00000E+000   0.58210E-002   0.00000E+000   0.00000E+000   0.00000E+000   0.58210E-002
   0.40740E-002   0.00000E+000   0.00000E+000   0.00000E+000   0.40740E-002   0.00000E+000   0.00000E+000   0.00000E+000   0.40740E-002
   0.56150E-002   0.00000E+000   0.00000E+000   0.00000E+000   0.56150E-002   0.00000E+000   0.00000E+000   0.00000E+000   0.56150E-002
   0.73080E-002   0.00000E+000   0.00000E+000   0.00000E+000   0.73080E-002   0.00000E+000   0.00000E+000   0.00000E+000   0.73080E-002
   0.72710E-002   0.00000E+000   0.00000E+000   0.00000E+000   0.72710E-002   0.00000E+000   0.00000E+000   0.00000E+000   0.72710E-002
   0.87600E-002   0.00000E+000   0.00000E+000   0.00000E+000   0.87600E-002   0.00000E+000   0.00000E+000   0.00000E+000   0.87600E-002
   0.82470E-002   0.00000E+000   0.00000E+000   0.00000E+000   0.82470E-002   0.00000E+000   0.00000E+000   0.00000E+000   0.82470E-002
   0.81940E-002   0.00000E+000   0.00000E+000   0.00000E+000   0.81940E-002   0.00000E+000   0.00000E+000   0.00000E+000   0.81940E-002
   0.86620E-002   0.00000E+000   0.00000E+000   0.00000E+000   0.86620E-002   0.00000E+000   0.00000E+000   0.00000E+000   0.86620E-002
   0.81940E-002   0.00000E+000   0.00000E+000   0.00000E+000   0.81940E-002   0.00000E+000   0.00000E+000   0.00000E+000   0.81940E-002
   0.63320E-002   0.00000E+000   0.00000E+000   0.00000E+000   0.63320E-002   0.00000E+000   0.00000E+000   0.00000E+000   0.63320E-002
   0.89900E-003   0.00000E+000   0.00000E+000   0.00000E+000   0.89900E-003   0.00000E+000   0.00000E+000   0.00000E+000   0.89900E-003
   0.62260E-002   0.00000E+000   0.00000E+000   0.00000E+000   0.62260E-002   0.00000E+000   0.00000E+000   0.00000E+000   0.62260E-002
   0.53860E-002   0.00000E+000   0.00000E+000   0.00000E+000   0.53860E-002   0.00000E+000   0.00000E+000   0.00000E+000   0.53860E-002
   0.63040E-002   0.00000E+000   0.00000E+000   0.00000E+000   0.63040E-002   0.00000E+000   0.00000E+000   0.00000E+000   0.63040E-002
   0.63300E-002   0.00000E+000   0.00000E+000   0.00000E+000   0.63300E-002   0.00000E+000   0.00000E+000   0.00000E+000   0.63300E-002
   0.45000E-002   0.00000E+000   0.00000E+000   0.00000E+000   0.45000E-002   0.00000E+000   0.00000E+000   0.00000E+000   0.45000E-002
   0.45900E-002   0.00000E+000   0.00000E+000   0.00000E+000   0.45900E-002   0.00000E+000   0.00000E+000   0.00000E+000   0.45900E-002
   0.27000E-002   0.00000E+000   0.00000E+000   0.00000E+000   0.27000E-002   0.00000E+000   0.00000E+000   0.00000E+000   0.27000E-002
   0.44520E-002   0.00000E+000   0.00000E+000   0.00000E+000   0.44520E-002   0.00000E+000   0.00000E+000   0.00000E+000   0.44520E-002
   0.35540E-002   0.00000E+000   0.00000E+000   0.00000E+000   0.35540E-002   0.00000E+000   0.00000E+000   0.00000E+000   0.35540E-002
   0.35240E-002   0.00000E+000   0.00000E+000   0.00000E+000   0.35240E-002   0.00000E+000   0.00000E+000   0.00000E+000   0.35240E-002
   0.44660E-002   0.00000E+000   0.00000E+000   0.00000E+000   0.44660E-002   0.00000E+000   0.00000E+000   0.00000E+000   0.44660E-002
   0.69000E-002   0.00000E+000   0.00000E+000   0.00000E+000   0.69000E-002   0.00000E+000   0.00000E+000   0.00000E+000   0.69000E-002
   0.65000E-002   0.00000E+000   0.00000E+000   0.00000E+000   0.65000E-002   0.00000E+000   0.00000E+000   0.00000E+000   0.65000E-002
   0.73130E-002   0.00000E+000   0.00000E+000   0.00000E+000   0.73130E-002   0.00000E+000   0.00000E+000   0.00000E+000   0.73130E-002
   0.66340E-002   0.00000E+000   0.00000E+000   0.00000E+000   0.66340E-002   0.00000E+000   0.00000E+000   0.00000E+000   0.66340E-002
   0.60800E-003   0.00000E+000   0.00000E+000   0.00000E+000   0.60800E-003   0.00000E+000   0.00000E+000   0.00000E+000   0.60800E-003
   0.00000E+000   0.00000E+000   0.00000E+000   0.00000E+000   0.00000E+000   0.00000E+000   0.00000E+000   0.00000E+000   0.00000E+000
   0.61500E-003   0.00000E+000   0.00000E+000   0.00000E+000   0.61500E-003   0.00000E+000   0.00000E+000   0.00000E+000   0.61500E-003
   0.00000E+000   0.00000E+000   0.00000E+000   0.00000E+000   0.00000E+000   0.00000E+000   0.00000E+000   0.00000E+000   0.00000E+000
   0.12780E-002   0.00000E+000   0.00000E+000   0.00000E+000   0.12780E-002   0.00000E+000   0.00000E+000   0.00000E+000   0.12780E-002
   0.12270E-002   0.00000E+000   0.00000E+000   0.00000E+000   0.12270E-002   0.00000E+000   0.00000E+000   0.00000E+000   0.12270E-002
   0.90000E-003   0.00000E+000   0.00000E+000   0.00000E+000   0.90000E-003   0.00000E+000   0.00000E+000   0.00000E+000   0.90000E-003
   0.93900E-003   0.00000E+000   0.00000E+000   0.00000E+000   0.93900E-003   0.00000E+000   0.00000E+000   0.00000E+000   0.93900E-003
   0.18190E-002   0.00000E+000   0.00000E+000   0.00000E+000   0.18190E-002   0.00000E+000   0.00000E+000   0.00000E+000   0.18190E-002
   0.00000E+000   0.00000E+000   0.00000E+000   0.00000E+000   0.00000E+000   0.00000E+000   0.00000E+000   0.00000E+000   0.00000E+000
   0.87000E-003   0.00000E+000   0.00000E+000   0.00000E+000   0.87000E-003   0.00000E+000   0.00000E+000   0.00000E+000   0.87000E-003
   0.12980E-002   0.00000E+000   0.00000E+000   0.00000E+000   0.12980E-002   0.00000E+000   0.00000E+000   0.00000E+000   0.12980E-002
   0.61560E-002   0.00000E+000   0.00000E+000   0.00000E+000   0.61560E-002   0.00000E+000   0.00000E+000   0.00000E+000   0.61560E-002
   0.73220E-002   0.00000E+000   0.00000E+000   0.00000E+000   0.73220E-002   0.00000E+000   0.00000E+000   0.00000E+000   0.73220E-002
   0.73200E-002   0.00000E+000   0.00000E+000   0.00000E+000   0.73200E-002   0.00000E+000   0.00000E+000   0.00000E+000   0.73200E-002
   0.54800E-002   0.00000E+000   0.00000E+000   0.00000E+000   0.54800E-002   0.00000E+000   0.00000E+000   0.00000E+000   0.54800E-002
   0.62040E-002   0.00000E+000   0.00000E+000   0.00000E+000   0.62040E-002   0.00000E+000   0.00000E+000   0.00000E+000   0.62040E-002
   0.61410E-002   0.00000E+000   0.00000E+000   0.00000E+000   0.61410E-002   0.00000E+000   0.00000E+000   0.00000E+000   0.61410E-002
   0.54710E-002   0.00000E+000   0.00000E+000   0.00000E+000   0.54710E-002   0.00000E+000   0.00000E+000   0.00000E+000   0.54710E-002
   0.86600E-002   0.00000E+000   0.00000E+000   0.00000E+000   0.86600E-002   0.00000E+000   0.00000E+000   0.00000E+000   0.86600E-002
   0.93400E-002   0.00000E+000   0.00000E+000   0.00000E+000   0.93400E-002   0.00000E+000   0.00000E+000   0.00000E+000   0.93400E-002
   0.87310E-002   0.00000E+000   0.00000E+000   0.00000E+000   0.87310E-002   0.00000E+000   0.00000E+000   0.00000E+000   0.87310E-002
   0.93830E-002   0.00000E+000   0.00000E+000   0.00000E+000   0.93830E-002   0.00000E+000   0.00000E+000   0.00000E+000   0.93830E-002
   0.86520E-002   0.00000E+000   0.00000E+000   0.00000E+000   0.86520E-002   0.00000E+000   0.00000E+000   0.00000E+000   0.86520E-002
   0.79260E-002   0.00000E+000   0.00000E+000   0.00000E+000   0.79260E-002   0.00000E+000   0.00000E+000   0.00000E+000   0.79260E-002
   0.36810E-002   0.00000E+000   0.00000E+000   0.00000E+000   0.36810E-002   0.00000E+000   0.00000E+000   0.00000E+000   0.36810E-002
   0.38190E-002   0.00000E+000   0.00000E+000   0.00000E+000   0.38190E-002   0.00000E+000   0.00000E+000   0.00000E+000   0.38190E-002
   0.62000E-003   0.00000E+000   0.00000E+000   0.00000E+000   0.62000E-003   0.00000E+000   0.00000E+000   0.00000E+000   0.62000E-003
   0.00000E+000   0.00000E+000   0.00000E+000   0.00000E+000   0.00000E+000   0.00000E+000   0.00000E+000   0.00000E+000   0.00000E+000
   0.00000E+000   0.00000E+000   0.00000E+000   0.00000E+000   0.00000E+000   0.00000E+000   0.00000E+000   0.00000E+000   0.00000E+000
   0.45630E-002   0.00000E+000   0.00000E+000   0.00000E+000   0.45630E-002   0.00000E+000   0.00000E+000   0.00000E+000   0.45630E-002
   0.36020E-002   0.00000E+000   0.00000E+000   0.00000E+000   0.36020E-002   0.00000E+000   0.00000E+000   0.00000E+000   0.36020E-002
   0.46310E-002   0.00000E+000   0.00000E+000   0.00000E+000   0.46310E-002   0.00000E+000   0.00000E+000   0.00000E+000   0.46310E-002
   0.51020E-002   0.00000E+000   0.00000E+000   0.00000E+000   0.51020E-002   0.00000E+000   0.00000E+000   0.00000E+000   0.51020E-002
   0.45290E-002   0.00000E+000   0.00000E+000   0.00000E+000   0.45290E-002   0.00000E+000   0.00000E+000   0.00000E+000   0.45290E-002
   0.54890E-002   0.00000E+000   0.00000E+000   0.00000E+000   0.54890E-002   0.00000E+000   0.00000E+000   0.00000E+000   0.54890E-002
   0.65200E-003   0.00000E+000   0.00000E+000   0.00000E+000   0.65200E-003   0.00000E+000   0.00000E+000   0.00000E+000   0.65200E-003
   0.69030E-002   0.00000E+000   0.00000E+000   0.00000E+000   0.69030E-002   0.00000E+000   0.00000E+000   0.00000E+000   0.69030E-002
   0.64100E-003   0.00000E+000   0.00000E+000   0.00000E+000   0.64100E-003   0.00000E+000   0.00000E+000   0.00000E+000   0.64100E-003
   0.12670E-002   0.00000E+000   0.00000E+000   0.00000E+000   0.12670E-002   0.00000E+000   0.00000E+000   0.00000E+000   0.12670E-002
   0.16200E-002   0.00000E+000   0.00000E+000   0.00000E+000   0.16200E-002   0.00000E+000   0.00000E+000   0.00000E+000   0.16200E-002
   0.57900E-003   0.00000E+000   0.00000E+000   0.00000E+000   0.57900E-003   0.00000E+000   0.00000E+000   0.00000E+000   0.57900E-003
   0.00000E+000   0.00000E+000   0.00000E+000   0.00000E+000   0.00000E+000   0.00000E+000   0.00000E+000   0.00000E+000   0.00000E+000
   0.00000E+000   0.00000E+000   0.00000E+000   0.00000E+000   0.00000E+000   0.00000E+000   0.00000E+000   0.00000E+000   0.00000E+000
   0.00000E+000   0.00000E+000   0.00000E+000   0.00000E+000   0.00000E+000   0.00000E+000   0.00000E+000   0.00000E+000   0.00000E+000
   0.86900E-003   0.00000E+000   0.00000E+000   0.00000E+000   0.86900E-003   0.00000E+000   0.00000E+000   0.00000E+000   0.86900E-003
   0.00000E+000   0.00000E+000   0.00000E+000   0.00000E+000   0.00000E+000   0.00000E+000   0.00000E+000   0.00000E+000   0.00000E+000
   0.12320E-002   0.00000E+000   0.00000E+000   0.00000E+000   0.12320E-002   0.00000E+000   0.00000E+000   0.00000E+000   0.12320E-002
   0.86900E-003   0.00000E+000   0.00000E+000   0.00000E+000   0.86900E-003   0.00000E+000   0.00000E+000   0.00000E+000   0.86900E-003
   0.00000E+000   0.00000E+000   0.00000E+000   0.00000E+000   0.00000E+000   0.00000E+000   0.00000E+000   0.00000E+000   0.00000E+000
   0.00000E+000   0.00000E+000   0.00000E+000   0.00000E+000   0.00000E+000   0.00000E+000   0.00000E+000   0.00000E+000   0.00000E+000
   0.16310E-002   0.00000E+000   0.00000E+000   0.00000E+000   0.16310E-002   0.00000E+000   0.00000E+000   0.00000E+000   0.16310E-002
   0.13140E-002   0.00000E+000   0.00000E+000   0.00000E+000   0.13140E-002   0.00000E+000   0.00000E+000   0.00000E+000   0.13140E-002
   0.12740E-002   0.00000E+000   0.00000E+000   0.00000E+000   0.12740E-002   0.00000E+000   0.00000E+000   0.00000E+000   0.12740E-002
   0.00000E+000   0.00000E+000   0.00000E+000   0.00000E+000   0.00000E+000   0.00000E+000   0.00000E+000   0.00000E+000   0.00000E+000
   0.87300E-003   0.00000E+000   0.00000E+000   0.00000E+000   0.87300E-003   0.00000E+000   0.00000E+000   0.00000E+000   0.87300E-003
   0.76720E-002   0.00000E+000   0.00000E+000   0.00000E+000   0.76720E-002   0.00000E+000   0.00000E+000   0.00000E+000   0.76720E-002
   0.74640E-002   0.00000E+000   0.00000E+000   0.00000E+000   0.74640E-002   0.00000E+000   0.00000E+000   0.00000E+000   0.74640E-002
   0.68130E-002   0.00000E+000   0.00000E+000   0.00000E+000   0.68130E-002   0.00000E+000   0.00000E+000   0.00000E+000   0.68130E-002
   0.73280E-002   0.00000E+000   0.00000E+000   0.00000E+000   0.73280E-002   0.00000E+000   0.00000E+000   0.00000E+000   0.73280E-002
   0.82050E-002   0.00000E+000   0.00000E+000   0.00000E+000   0.82050E-002   0.00000E+000   0.00000E+000   0.00000E+000   0.82050E-002
   0.26950E-002   0.00000E+000   0.00000E+000   0.00000E+000   0.26950E-002   0.00000E+000   0.00000E+000   0.00000E+000   0.26950E-002
   0.17940E-002   0.00000E+000   0.00000E+000   0.00000E+000   0.17940E-002   0.00000E+000   0.00000E+000   0.00000E+000   0.17940E-002
   0.17770E-002   0.00000E+000   0.00000E+000   0.00000E+000   0.17770E-002   0.00000E+000   0.00000E+000   0.00000E+000   0.17770E-002
   0.81720E-002   0.00000E+000   0.00000E+000   0.00000E+000   0.81720E-002   0.00000E+000   0.00000E+000   0.00000E+000   0.81720E-002
   0.73950E-002   0.00000E+000   0.00000E+000   0.00000E+000   0.73950E-002   0.00000E+000   0.00000E+000   0.00000E+000   0.73950E-002
   0.12100E-002   0.00000E+000   0.00000E+000   0.00000E+000   0.12100E-002   0.00000E+000   0.00000E+000   0.00000E+000   0.12100E-002
   0.18130E-002   0.00000E+000   0.00000E+000   0.00000E+000   0.18130E-002   0.00000E+000   0.00000E+000   0.00000E+000   0.18130E-002
   0.66100E-003   0.00000E+000   0.00000E+000   0.00000E+000   0.66100E-003   0.00000E+000   0.00000E+000   0.00000E+000   0.66100E-003
   0.88400E-003   0.00000E+000   0.00000E+000   0.00000E+000   0.88400E-003   0.00000E+000   0.00000E+000   0.00000E+000   0.88400E-003
   0.11040E-002   0.00000E+000   0.00000E+000   0.00000E+000   0.11040E-002   0.00000E+000   0.00000E+000   0.00000E+000   0.11040E-002
   0.62200E-003   0.00000E+000   0.00000E+000   0.00000E+000   0.62200E-003   0.00000E+000   0.00000E+000   0.00000E+000   0.62200E-003
   0.17800E-002   0.00000E+000   0.00000E+000   0.00000E+000   0.17800E-002   0.00000E+000   0.00000E+000   0.00000E+000   0.17800E-002
   0.20160E-002   0.00000E+000   0.00000E+000   0.00000E+000   0.20160E-002   0.00000E+000   0.00000E+000   0.00000E+000   0.20160E-002
   0.28490E-002   0.00000E+000   0.00000E+000   0.00000E+000   0.28490E-002   0.00000E+000   0.00000E+000   0.00000E+000   0.28490E-002
   0.26510E-002   0.00000E+000   0.00000E+000   0.00000E+000   0.26510E-002   0.00000E+000   0.00000E+000   0.00000E+000   0.26510E-002
   0.58500E-003   0.00000E+000   0.00000E+000   0.00000E+000   0.58500E-003   0.00000E+000   0.00000E+000   0.00000E+000   0.58500E-003
   0.91900E-003   0.00000E+000   0.00000E+000   0.00000E+000   0.91900E-003   0.00000E+000   0.00000E+000   0.00000E+000   0.91900E-003
   0.47660E-002   0.00000E+000   0.00000E+000   0.00000E+000   0.47660E-002   0.00000E+000   0.00000E+000   0.00000E+000   0.47660E-002
   0.54430E-002   0.00000E+000   0.00000E+000   0.00000E+000   0.54430E-002   0.00000E+000   0.00000E+000   0.00000E+000   0.54430E-002
   0.41700E-002   0.00000E+000   0.00000E+000   0.00000E+000   0.41700E-002   0.00000E+000   0.00000E+000   0.00000E+000   0.41700E-002
   0.39080E-002   0.00000E+000   0.00000E+000   0.00000E+000   0.39080E-002   0.00000E+000   0.00000E+000   0.00000E+000   0.39080E-002
   0.44590E-002   0.00000E+000   0.00000E+000   0.00000E+000   0.44590E-002   0.00000E+000   0.00000E+000   0.00000E+000   0.44590E-002
   0.88170E-002   0.00000E+000   0.00000E+000   0.00000E+000   0.88170E-002   0.00000E+000   0.00000E+000   0.00000E+000   0.88170E-002
   0.90840E-002   0.00000E+000   0.00000E+000   0.00000E+000   0.90840E-002   0.00000E+000   0.00000E+000   0.00000E+000   0.90840E-002
   0.81630E-002   0.00000E+000   0.00000E+000   0.00000E+000   0.81630E-002   0.00000E+000   0.00000E+000   0.00000E+000   0.81630E-002
   0.65840E-002   0.00000E+000   0.00000E+000   0.00000E+000   0.65840E-002   0.00000E+000   0.00000E+000   0.00000E+000   0.65840E-002
   0.60630E-002   0.00000E+000   0.00000E+000   0.00000E+000   0.60630E-002   0.00000E+000   0.00000E+000   0.00000E+000   0.60630E-002
   0.71410E-002   0.00000E+000   0.00000E+000   0.00000E+000   0.71410E-002   0.00000E+000   0.00000E+000   0.00000E+000   0.71410E-002
   0.72050E-002   0.00000E+000   0.00000E+000   0.00000E+000   0.72050E-002   0.00000E+000   0.00000E+000   0.00000E+000   0.72050E-002
   0.11250E-002   0.00000E+000   0.00000E+000   0.00000E+000   0.11250E-002   0.00000E+000   0.00000E+000   0.00000E+000   0.11250E-002
   0.00000E+000   0.00000E+000   0.00000E+000   0.00000E+000   0.00000E+000   0.00000E+000   0.00000E+000   0.00000E+000   0.00000E+000
   0.87400E-003   0.00000E+000   0.00000E+000   0.00000E+000   0.87400E-003   0.00000E+000   0.00000E+000   0.00000E+000   0.87400E-003
   0.00000E+000   0.00000E+000   0.00000E+000   0.00000E+000   0.00000E+000   0.00000E+000   0.00000E+000   0.00000E+000   0.00000E+000
   0.72830E-002   0.00000E+000   0.00000E+000   0.00000E+000   0.72830E-002   0.00000E+000   0.00000E+000   0.00000E+000   0.72830E-002
   0.73080E-002   0.00000E+000   0.00000E+000   0.00000E+000   0.73080E-002   0.00000E+000   0.00000E+000   0.00000E+000   0.73080E-002
   0.00000E+000   0.00000E+000   0.00000E+000   0.00000E+000   0.00000E+000   0.00000E+000   0.00000E+000   0.00000E+000   0.00000E+000
   0.87890E-002   0.00000E+000   0.00000E+000   0.00000E+000   0.87890E-002   0.00000E+000   0.00000E+000   0.00000E+000   0.87890E-002
   0.94110E-002   0.00000E+000   0.00000E+000   0.00000E+000   0.94110E-002   0.00000E+000   0.00000E+000   0.00000E+000   0.94110E-002
   0.53630E-002   0.00000E+000   0.00000E+000   0.00000E+000   0.53630E-002   0.00000E+000   0.00000E+000   0.00000E+000   0.53630E-002
   0.63630E-002   0.00000E+000   0.00000E+000   0.00000E+000   0.63630E-002   0.00000E+000   0.00000E+000   0.00000E+000   0.63630E-002
   0.00000E+000   0.00000E+000   0.00000E+000   0.00000E+000   0.00000E+000   0.00000E+000   0.00000E+000   0.00000E+000   0.00000E+000
   0.00000E+000   0.00000E+000   0.00000E+000   0.00000E+000   0.00000E+000   0.00000E+000   0.00000E+000   0.00000E+000   0.00000E+000
   0.00000E+000   0.00000E+000   0.00000E+000   0.00000E+000   0.00000E+000   0.00000E+000   0.00000E+000   0.00000E+000   0.00000E+000
   0.19190E-002   0.00000E+000   0.00000E+000   0.00000E+000   0.19190E-002   0.00000E+000   0.00000E+000   0.00000E+000   0.19190E-002
   0.12880E-002   0.00000E+000   0.00000E+000   0.00000E+000   0.12880E-002   0.00000E+000   0.00000E+000   0.00000E+000   0.12880E-002
   0.72100E-003   0.00000E+000   0.00000E+000   0.00000E+000   0.72100E-003   0.00000E+000   0.00000E+000   0.00000E+000   0.72100E-003
   0.12820E-002   0.00000E+000   0.00000E+000   0.00000E+000   0.12820E-002   0.00000E+000   0.00000E+000   0.00000E+000   0.12820E-002
   0.65400E-003   0.00000E+000   0.00000E+000   0.00000E+000   0.65400E-003   0.00000E+000   0.00000E+000   0.00000E+000   0.65400E-003
   0.26300E-002   0.00000E+000   0.00000E+000   0.00000E+000   0.26300E-002   0.00000E+000   0.00000E+000   0.00000E+000   0.26300E-002
   0.19710E-002   0.00000E+000   0.00000E+000   0.00000E+000   0.19710E-002   0.00000E+000   0.00000E+000   0.00000E+000   0.19710E-002
   0.66800E-003   0.00000E+000   0.00000E+000   0.00000E+000   0.66800E-003   0.00000E+000   0.00000E+000   0.00000E+000   0.66800E-003
   0.96300E-003   0.00000E+000   0.00000E+000   0.00000E+000   0.96300E-003   0.00000E+000   0.00000E+000   0.00000E+000   0.96300E-003
   0.12360E-002   0.00000E+000   0.00000E+000   0.00000E+000   0.12360E-002   0.00000E+000   0.00000E+000   0.00000E+000   0.12360E-002
   0.20460E-002   0.00000E+000   0.00000E+000   0.00000E+000   0.20460E-002   0.00000E+000   0.00000E+000   0.00000E+000   0.20460E-002
   0.62230E-002   0.00000E+000   0.00000E+000   0.00000E+000   0.62230E-002   0.00000E+000   0.00000E+000   0.00000E+000   0.62230E-002
   0.35110E-002   0.00000E+000   0.00000E+000   0.00000E+000   0.35110E-002   0.00000E+000   0.00000E+000   0.00000E+000   0.35110E-002
   0.66700E-003   0.00000E+000   0.00000E+000   0.00000E+000   0.66700E-003   0.00000E+000   0.00000E+000   0.00000E+000   0.66700E-003
   0.19150E-002   0.00000E+000   0.00000E+000   0.00000E+000   0.19150E-002   0.00000E+000   0.00000E+000   0.00000E+000   0.19150E-002
   0.42940E-002   0.00000E+000   0.00000E+000   0.00000E+000   0.42940E-002   0.00000E+000   0.00000E+000   0.00000E+000   0.42940E-002
   0.87100E-003   0.00000E+000   0.00000E+000   0.00000E+000   0.87100E-003   0.00000E+000   0.00000E+000   0.00000E+000   0.87100E-003
   0.17510E-002   0.00000E+000   0.00000E+000   0.00000E+000   0.17510E-002   0.00000E+000   0.00000E+000   0.00000E+000   0.17510E-002
   0.17500E-002   0.00000E+000   0.00000E+000   0.00000E+000   0.17500E-002   0.00000E+000   0.00000E+000   0.00000E+000   0.17500E-002
   0.78990E-002   0.00000E+000   0.00000E+000   0.00000E+000   0.78990E-002   0.00000E+000   0.00000E+000   0.00000E+000   0.78990E-002
   0.72850E-002   0.00000E+000   0.00000E+000   0.00000E+000   0.72850E-002   0.00000E+000   0.00000E+000   0.00000E+000   0.72850E-002
   0.72100E-002   0.00000E+000   0.00000E+000   0.00000E+000   0.72100E-002   0.00000E+000   0.00000E+000   0.00000E+000   0.72100E-002
   0.86200E-002   0.00000E+000   0.00000E+000   0.00000E+000   0.86200E-002   0.00000E+000   0.00000E+000   0.00000E+000   0.86200E-002
   0.88200E-002   0.00000E+000   0.00000E+000   0.00000E+000   0.88200E-002   0.00000E+000   0.00000E+000   0.00000E+000   0.88200E-002
   0.93930E-002   0.00000E+000   0.00000E+000   0.00000E+000   0.93930E-002   0.00000E+000   0.00000E+000   0.00000E+000   0.93930E-002
   0.10000E-001   0.00000E+000   0.00000E+000   0.00000E+000   0.10000E-001   0.00000E+000   0.00000E+000   0.00000E+000   0.10000E-001
   0.93220E-002   0.00000E+000   0.00000E+000   0.00000E+000   0.93220E-002   0.00000E+000   0.00000E+000   0.00000E+000   0.93220E-002
   0.90990E-002   0.00000E+000   0.00000E+000   0.00000E+000   0.90990E-002   0.00000E+000   0.00000E+000   0.00000E+000   0.90990E-002
   0.79640E-002   0.00000E+000   0.00000E+000   0.00000E+000   0.79640E-002   0.00000E+000   0.00000E+000   0.00000E+000   0.79640E-002
   0.93530E-002   0.00000E+000   0.00000E+000   0.00000E+000   0.93530E-002   0.00000E+000   0.00000E+000   0.00000E+000   0.93530E-002
   0.91960E-002   0.00000E+000   0.00000E+000   0.00000E+000   0.91960E-002   0.00000E+000   0.00000E+000   0.00000E+000   0.91960E-002
   0.32900E-002   0.00000E+000   0.00000E+000   0.00000E+000   0.32900E-002   0.00000E+000   0.00000E+000   0.00000E+000   0.32900E-002
   0.42280E-002   0.00000E+000   0.00000E+000   0.00000E+000   0.42280E-002   0.00000E+000   0.00000E+000   0.00000E+000   0.42280E-002
   0.82690E-002   0.00000E+000   0.00000E+000   0.00000E+000   0.82690E-002   0.00000E+000   0.00000E+000   0.00000E+000   0.82690E-002
   0.63460E-002   0.00000E+000   0.00000E+000   0.00000E+000   0.63460E-002   0.00000E+000   0.00000E+000   0.00000E+000   0.63460E-002
   0.54100E-002   0.00000E+000   0.00000E+000   0.00000E+000   0.54100E-002   0.00000E+000   0.00000E+000   0.00000E+000   0.54100E-002
   0.54060E-002   0.00000E+000   0.00000E+000   0.00000E+000   0.54060E-002   0.00000E+000   0.00000E+000   0.00000E+000   0.54060E-002
   0.28870E-002   0.00000E+000   0.00000E+000   0.00000E+000   0.28870E-002   0.00000E+000   0.00000E+000   0.00000E+000   0.28870E-002
   0.42660E-002   0.00000E+000   0.00000E+000   0.00000E+000   0.42660E-002   0.00000E+000   0.00000E+000   0.00000E+000   0.42660E-002
   0.47330E-002   0.00000E+000   0.00000E+000   0.00000E+000   0.47330E-002   0.00000E+000   0.00000E+000   0.00000E+000   0.47330E-002
   0.44510E-002   0.00000E+000   0.00000E+000   0.00000E+000   0.44510E-002   0.00000E+000   0.00000E+000   0.00000E+000   0.44510E-002
   0.45020E-002   0.00000E+000   0.00000E+000   0.00000E+000   0.45020E-002   0.00000E+000   0.00000E+000   0.00000E+000   0.45020E-002
   0.27110E-002   0.00000E+000   0.00000E+000   0.00000E+000   0.27110E-002   0.00000E+000   0.00000E+000   0.00000E+000   0.27110E-002
   0.38240E-002   0.00000E+000   0.00000E+000   0.00000E+000   0.38240E-002   0.00000E+000   0.00000E+000   0.00000E+000   0.38240E-002
   0.82450E-002   0.00000E+000   0.00000E+000   0.00000E+000   0.82450E-002   0.00000E+000   0.00000E+000   0.00000E+000   0.82450E-002
   0.10000E-001   0.00000E+000   0.00000E+000   0.00000E+000   0.10000E-001   0.00000E+000   0.00000E+000   0.00000E+000   0.10000E-001
   0.10000E-001   0.00000E+000   0.00000E+000   0.00000E+000   0.10000E-001   0.00000E+000   0.00000E+000   0.00000E+000   0.10000E-001
   0.10000E-001   0.00000E+000   0.00000E+000   0.00000E+000   0.10000E-001   0.00000E+000   0.00000E+000   0.00000E+000   0.10000E-001
   0.55640E-002   0.00000E+000   0.00000E+000   0.00000E+000   0.55640E-002   0.00000E+000   0.00000E+000   0.00000E+000   0.55640E-002
   0.40850E-002   0.00000E+000   0.00000E+000   0.00000E+000   0.40850E-002   0.00000E+000   0.00000E+000   0.00000E+000   0.40850E-002
   0.35120E-002   0.00000E+000   0.00000E+000   0.00000E+000   0.35120E-002   0.00000E+000   0.00000E+000   0.00000E+000   0.35120E-002
   0.63470E-002   0.00000E+000   0.00000E+000   0.00000E+000   0.63470E-002   0.00000E+000   0.00000E+000   0.00000E+000   0.63470E-002
   0.72720E-002   0.00000E+000   0.00000E+000   0.00000E+000   0.72720E-002   0.00000E+000   0.00000E+000   0.00000E+000   0.72720E-002
   0.92990E-002   0.00000E+000   0.00000E+000   0.00000E+000   0.92990E-002   0.00000E+000   0.00000E+000   0.00000E+000   0.92990E-002
   0.10000E-001   0.00000E+000   0.00000E+000   0.00000E+000   0.10000E-001   0.00000E+000   0.00000E+000   0.00000E+000   0.10000E-001
   0.86610E-002   0.00000E+000   0.00000E+000   0.00000E+000   0.86610E-002   0.00000E+000   0.00000E+000   0.00000E+000   0.86610E-002
   0.10000E-001   0.00000E+000   0.00000E+000   0.00000E+000   0.10000E-001   0.00000E+000   0.00000E+000   0.00000E+000   0.10000E-001
   0.94180E-002   0.00000E+000   0.00000E+000   0.00000E+000   0.94180E-002   0.00000E+000   0.00000E+000   0.00000E+000   0.94180E-002
   0.87860E-002   0.00000E+000   0.00000E+000   0.00000E+000   0.87860E-002   0.00000E+000   0.00000E+000   0.00000E+000   0.87860E-002
   0.92360E-002   0.00000E+000   0.00000E+000   0.00000E+000   0.92360E-002   0.00000E+000   0.00000E+000   0.00000E+000   0.92360E-002
   0.10000E-001   0.00000E+000   0.00000E+000   0.00000E+000   0.10000E-001   0.00000E+000   0.00000E+000   0.00000E+000   0.10000E-001
   0.10000E-001   0.00000E+000   0.00000E+000   0.00000E+000   0.10000E-001   0.00000E+000   0.00000E+000   0.00000E+000   0.10000E-001
   0.89780E-002   0.00000E+000   0.00000E+000   0.00000E+000   0.89780E-002   0.00000E+000   0.00000E+000   0.00000E+000   0.89780E-002
   0.94310E-002   0.00000E+000   0.00000E+000   0.00000E+000   0.94310E-002   0.00000E+000   0.00000E+000   0.00000E+000   0.94310E-002
   0.17980E-002   0.00000E+000   0.00000E+000   0.00000E+000   0.17980E-002   0.00000E+000   0.00000E+000   0.00000E+000   0.17980E-002
   0.24460E-002   0.00000E+000   0.00000E+000   0.00000E+000   0.24460E-002   0.00000E+000   0.00000E+000   0.00000E+000   0.24460E-002
   0.64100E-003   0.00000E+000   0.00000E+000   0.00000E+000   0.64100E-003   0.00000E+000   0.00000E+000   0.00000E+000   0.64100E-003
   0.61300E-003   0.00000E+000   0.00000E+000   0.00000E+000   0.61300E-003   0.00000E+000   0.00000E+000   0.00000E+000   0.61300E-003
   0.11970E-002   0.00000E+000   0.00000E+000   0.00000E+000   0.11970E-002   0.00000E+000   0.00000E+000   0.00000E+000   0.11970E-002
   0.94000E-002   0.00000E+000   0.00000E+000   0.00000E+000   0.94000E-002   0.00000E+000   0.00000E+000   0.00000E+000   0.94000E-002
   0.61580E-002   0.00000E+000   0.00000E+000   0.00000E+000   0.61580E-002   0.00000E+000   0.00000E+000   0.00000E+000   0.61580E-002
   0.65910E-002   0.00000E+000   0.00000E+000   0.00000E+000   0.65910E-002   0.00000E+000   0.00000E+000   0.00000E+000   0.65910E-002
   0.10000E-001   0.00000E+000   0.00000E+000   0.00000E+000   0.10000E-001   0.00000E+000   0.00000E+000   0.00000E+000   0.10000E-001
   0.63410E-002   0.00000E+000   0.00000E+000   0.00000E+000   0.63410E-002   0.00000E+000   0.00000E+000   0.00000E+000   0.63410E-002
   0.63450E-002   0.00000E+000   0.00000E+000   0.00000E+000   0.63450E-002   0.00000E+000   0.00000E+000   0.00000E+000   0.63450E-002
   0.28180E-002   0.00000E+000   0.00000E+000   0.00000E+000   0.28180E-002   0.00000E+000   0.00000E+000   0.00000E+000   0.28180E-002
   0.54050E-002   0.00000E+000   0.00000E+000   0.00000E+000   0.54050E-002   0.00000E+000   0.00000E+000   0.00000E+000   0.54050E-002
   0.44840E-002   0.00000E+000   0.00000E+000   0.00000E+000   0.44840E-002   0.00000E+000   0.00000E+000   0.00000E+000   0.44840E-002
   0.54010E-002   0.00000E+000   0.00000E+000   0.00000E+000   0.54010E-002   0.00000E+000   0.00000E+000   0.00000E+000   0.54010E-002
   0.28160E-002   0.00000E+000   0.00000E+000   0.00000E+000   0.28160E-002   0.00000E+000   0.00000E+000   0.00000E+000   0.28160E-002
   0.27360E-002   0.00000E+000   0.00000E+000   0.00000E+000   0.27360E-002   0.00000E+000   0.00000E+000   0.00000E+000   0.27360E-002
   0.87160E-002   0.00000E+000   0.00000E+000   0.00000E+000   0.87160E-002   0.00000E+000   0.00000E+000   0.00000E+000   0.87160E-002
   0.54250E-002   0.00000E+000   0.00000E+000   0.00000E+000   0.54250E-002   0.00000E+000   0.00000E+000   0.00000E+000   0.54250E-002
   0.54170E-002   0.00000E+000   0.00000E+000   0.00000E+000   0.54170E-002   0.00000E+000   0.00000E+000   0.00000E+000   0.54170E-002
   0.72720E-002   0.00000E+000   0.00000E+000   0.00000E+000   0.72720E-002   0.00000E+000   0.00000E+000   0.00000E+000   0.72720E-002
   0.72370E-002   0.00000E+000   0.00000E+000   0.00000E+000   0.72370E-002   0.00000E+000   0.00000E+000   0.00000E+000   0.72370E-002
   0.63550E-002   0.00000E+000   0.00000E+000   0.00000E+000   0.63550E-002   0.00000E+000   0.00000E+000   0.00000E+000   0.63550E-002
   0.91010E-002   0.00000E+000   0.00000E+000   0.00000E+000   0.91010E-002   0.00000E+000   0.00000E+000   0.00000E+000   0.91010E-002
   0.81960E-002   0.00000E+000   0.00000E+000   0.00000E+000   0.81960E-002   0.00000E+000   0.00000E+000   0.00000E+000   0.81960E-002
   0.81930E-002   0.00000E+000   0.00000E+000   0.00000E+000   0.81930E-002   0.00000E+000   0.00000E+000   0.00000E+000   0.81930E-002
   0.00000E+000   0.00000E+000   0.00000E+000   0.00000E+000   0.00000E+000   0.00000E+000   0.00000E+000   0.00000E+000   0.00000E+000
   0.50290E-002   0.00000E+000   0.00000E+000   0.00000E+000   0.50290E-002   0.00000E+000   0.00000E+000   0.00000E+000   0.50290E-002
   0.20170E-002   0.00000E+000   0.00000E+000   0.00000E+000   0.20170E-002   0.00000E+000   0.00000E+000   0.00000E+000   0.20170E-002
   0.44840E-002   0.00000E+000   0.00000E+000   0.00000E+000   0.44840E-002   0.00000E+000   0.00000E+000   0.00000E+000   0.44840E-002
   0.79960E-002   0.00000E+000   0.00000E+000   0.00000E+000   0.79960E-002   0.00000E+000   0.00000E+000   0.00000E+000   0.79960E-002
   0.10000E-001   0.00000E+000   0.00000E+000   0.00000E+000   0.10000E-001   0.00000E+000   0.00000E+000   0.00000E+000   0.10000E-001
   0.91010E-002   0.00000E+000   0.00000E+000   0.00000E+000   0.91010E-002   0.00000E+000   0.00000E+000   0.00000E+000   0.91010E-002
   0.10000E-001   0.00000E+000   0.00000E+000   0.00000E+000   0.10000E-001   0.00000E+000   0.00000E+000   0.00000E+000   0.10000E-001
   0.10000E-001   0.00000E+000   0.00000E+000   0.00000E+000   0.10000E-001   0.00000E+000   0.00000E+000   0.00000E+000   0.10000E-001
   0.58860E-002   0.00000E+000   0.00000E+000   0.00000E+000   0.58860E-002   0.00000E+000   0.00000E+000   0.00000E+000   0.58860E-002
   0.90990E-002   0.00000E+000   0.00000E+000   0.00000E+000   0.90990E-002   0.00000E+000   0.00000E+000   0.00000E+000   0.90990E-002
   0.29400E-002   0.00000E+000   0.00000E+000   0.00000E+000   0.29400E-002   0.00000E+000   0.00000E+000   0.00000E+000   0.29400E-002
   0.19220E-002   0.00000E+000   0.00000E+000   0.00000E+000   0.19220E-002   0.00000E+000   0.00000E+000   0.00000E+000   0.19220E-002
   0.54100E-003   0.00000E+000   0.00000E+000   0.00000E+000   0.54100E-003   0.00000E+000   0.00000E+000   0.00000E+000   0.54100E-003
   0.00000E+000   0.00000E+000   0.00000E+000   0.00000E+000   0.00000E+000   0.00000E+000   0.00000E+000   0.00000E+000   0.00000E+000
   0.91100E-003   0.00000E+000   0.00000E+000   0.00000E+000   0.91100E-003   0.00000E+000   0.00000E+000   0.00000E+000   0.91100E-003
   0.00000E+000   0.00000E+000   0.00000E+000   0.00000E+000   0.00000E+000   0.00000E+000   0.00000E+000   0.00000E+000   0.00000E+000
   0.89700E-002   0.00000E+000   0.00000E+000   0.00000E+000   0.89700E-002   0.00000E+000   0.00000E+000   0.00000E+000   0.89700E-002
   0.36470E-002   0.00000E+000   0.00000E+000   0.00000E+000   0.36470E-002   0.00000E+000   0.00000E+000   0.00000E+000   0.36470E-002
   0.20340E-002   0.00000E+000   0.00000E+000   0.00000E+000   0.20340E-002   0.00000E+000   0.00000E+000   0.00000E+000   0.20340E-002
   0.52110E-002   0.00000E+000   0.00000E+000   0.00000E+000   0.52110E-002   0.00000E+000   0.00000E+000   0.00000E+000   0.52110E-002
   0.80260E-002   0.00000E+000   0.00000E+000   0.00000E+000   0.80260E-002   0.00000E+000   0.00000E+000   0.00000E+000   0.80260E-002
   0.19520E-002   0.00000E+000   0.00000E+000   0.00000E+000   0.19520E-002   0.00000E+000   0.00000E+000   0.00000E+000   0.19520E-002
   0.00000E+000   0.00000E+000   0.00000E+000   0.00000E+000   0.00000E+000   0.00000E+000   0.00000E+000   0.00000E+000   0.00000E+000
   0.20700E-002   0.00000E+000   0.00000E+000   0.00000E+000   0.20700E-002   0.00000E+000   0.00000E+000   0.00000E+000   0.20700E-002
   0.72740E-002   0.00000E+000   0.00000E+000   0.00000E+000   0.72740E-002   0.00000E+000   0.00000E+000   0.00000E+000   0.72740E-002
   0.81960E-002   0.00000E+000   0.00000E+000   0.00000E+000   0.81960E-002   0.00000E+000   0.00000E+000   0.00000E+000   0.81960E-002
   0.19140E-002   0.00000E+000   0.00000E+000   0.00000E+000   0.19140E-002   0.00000E+000   0.00000E+000   0.00000E+000   0.19140E-002
   0.59820E-002   0.00000E+000   0.00000E+000   0.00000E+000   0.59820E-002   0.00000E+000   0.00000E+000   0.00000E+000   0.59820E-002
   0.10000E-001   0.00000E+000   0.00000E+000   0.00000E+000   0.10000E-001   0.00000E+000   0.00000E+000   0.00000E+000   0.10000E-001
   0.84120E-002   0.00000E+000   0.00000E+000   0.00000E+000   0.84120E-002   0.00000E+000   0.00000E+000   0.00000E+000   0.84120E-002
   0.10000E-001   0.00000E+000   0.00000E+000   0.00000E+000   0.10000E-001   0.00000E+000   0.00000E+000   0.00000E+000   0.10000E-001
   0.19610E-002   0.00000E+000   0.00000E+000   0.00000E+000   0.19610E-002   0.00000E+000   0.00000E+000   0.00000E+000   0.19610E-002
   0.26380E-002   0.00000E+000   0.00000E+000   0.00000E+000   0.26380E-002   0.00000E+000   0.00000E+000   0.00000E+000   0.26380E-002
   0.10000E-001   0.00000E+000   0.00000E+000   0.00000E+000   0.10000E-001   0.00000E+000   0.00000E+000   0.00000E+000   0.10000E-001
   0.27740E-002   0.00000E+000   0.00000E+000   0.00000E+000   0.27740E-002   0.00000E+000   0.00000E+000   0.00000E+000   0.27740E-002
   0.14970E-002   0.00000E+000   0.00000E+000   0.00000E+000   0.14970E-002   0.00000E+000   0.00000E+000   0.00000E+000   0.14970E-002
   0.18300E-002   0.00000E+000   0.00000E+000   0.00000E+000   0.18300E-002   0.00000E+000   0.00000E+000   0.00000E+000   0.18300E-002
   0.10000E-001   0.00000E+000   0.00000E+000   0.00000E+000   0.10000E-001   0.00000E+000   0.00000E+000   0.00000E+000   0.10000E-001
   0.10000E-001   0.00000E+000   0.00000E+000   0.00000E+000   0.10000E-001   0.00000E+000   0.00000E+000   0.00000E+000   0.10000E-001
   0.00000E+000   0.00000E+000   0.00000E+000   0.00000E+000   0.00000E+000   0.00000E+000   0.00000E+000   0.00000E+000   0.00000E+000
   0.59800E-003   0.00000E+000   0.00000E+000   0.00000E+000   0.59800E-003   0.00000E+000   0.00000E+000   0.00000E+000   0.59800E-003
   0.00000E+000   0.00000E+000   0.00000E+000   0.00000E+000   0.00000E+000   0.00000E+000   0.00000E+000   0.00000E+000   0.00000E+000
   0.00000E+000   0.00000E+000   0.00000E+000   0.00000E+000   0.00000E+000   0.00000E+000   0.00000E+000   0.00000E+000   0.00000E+000
   0.11610E-002   0.00000E+000   0.00000E+000   0.00000E+000   0.11610E-002   0.00000E+000   0.00000E+000   0.00000E+000   0.11610E-002
   0.00000E+000   0.00000E+000   0.00000E+000   0.00000E+000   0.00000E+000   0.00000E+000   0.00000E+000   0.00000E+000   0.00000E+000
   0.00000E+000   0.00000E+000   0.00000E+000   0.00000E+000   0.00000E+000   0.00000E+000   0.00000E+000   0.00000E+000   0.00000E+000
   0.26470E-002   0.00000E+000   0.00000E+000   0.00000E+000   0.26470E-002   0.00000E+000   0.00000E+000   0.00000E+000   0.26470E-002
   0.78400E-003   0.00000E+000   0.00000E+000   0.00000E+000   0.78400E-003   0.00000E+000   0.00000E+000   0.00000E+000   0.78400E-003
   0.55200E-003   0.00000E+000   0.00000E+000   0.00000E+000   0.55200E-003   0.00000E+000   0.00000E+000   0.00000E+000   0.55200E-003
   0.00000E+000   0.00000E+000   0.00000E+000   0.00000E+000   0.00000E+000   0.00000E+000   0.00000E+000   0.00000E+000   0.00000E+000
   0.58170E-002   0.00000E+000   0.00000E+000   0.00000E+000   0.58170E-002   0.00000E+000   0.00000E+000   0.00000E+000   0.58170E-002
   0.50730E-002   0.00000E+000   0.00000E+000   0.00000E+000   0.50730E-002   0.00000E+000   0.00000E+000   0.00000E+000   0.50730E-002
   0.00000E+000   0.00000E+000   0.00000E+000   0.00000E+000   0.00000E+000   0.00000E+000   0.00000E+000   0.00000E+000   0.00000E+000
   0.94300E-003   0.00000E+000   0.00000E+000   0.00000E+000   0.94300E-003   0.00000E+000   0.00000E+000   0.00000E+000   0.94300E-003
   0.11650E-002   0.00000E+000   0.00000E+000   0.00000E+000   0.11650E-002   0.00000E+000   0.00000E+000   0.00000E+000   0.11650E-002
   0.00000E+000   0.00000E+000   0.00000E+000   0.00000E+000   0.00000E+000   0.00000E+000   0.00000E+000   0.00000E+000   0.00000E+000
   0.50900E-003   0.00000E+000   0.00000E+000   0.00000E+000   0.50900E-003   0.00000E+000   0.00000E+000   0.00000E+000   0.50900E-003
   0.10960E-002   0.00000E+000   0.00000E+000   0.00000E+000   0.10960E-002   0.00000E+000   0.00000E+000   0.00000E+000   0.10960E-002
   0.94910E-002   0.00000E+000   0.00000E+000   0.00000E+000   0.94910E-002   0.00000E+000   0.00000E+000   0.00000E+000   0.94910E-002
   0.88560E-002   0.00000E+000   0.00000E+000   0.00000E+000   0.88560E-002   0.00000E+000   0.00000E+000   0.00000E+000   0.88560E-002
   0.90550E-002   0.00000E+000   0.00000E+000   0.00000E+000   0.90550E-002   0.00000E+000   0.00000E+000   0.00000E+000   0.90550E-002
   0.10000E-001   0.00000E+000   0.00000E+000   0.00000E+000   0.10000E-001   0.00000E+000   0.00000E+000   0.00000E+000   0.10000E-001
   0.90510E-002   0.00000E+000   0.00000E+000   0.00000E+000   0.90510E-002   0.00000E+000   0.00000E+000   0.00000E+000   0.90510E-002
   0.80770E-002   0.00000E+000   0.00000E+000   0.00000E+000   0.80770E-002   0.00000E+000   0.00000E+000   0.00000E+000   0.80770E-002
   0.91450E-002   0.00000E+000   0.00000E+000   0.00000E+000   0.91450E-002   0.00000E+000   0.00000E+000   0.00000E+000   0.91450E-002
   0.10000E-001   0.00000E+000   0.00000E+000   0.00000E+000   0.10000E-001   0.00000E+000   0.00000E+000   0.00000E+000   0.10000E-001
   0.27510E-002   0.00000E+000   0.00000E+000   0.00000E+000   0.27510E-002   0.00000E+000   0.00000E+000   0.00000E+000   0.27510E-002
   0.35800E-002   0.00000E+000   0.00000E+000   0.00000E+000   0.35800E-002   0.00000E+000   0.00000E+000   0.00000E+000   0.35800E-002
   0.27480E-002   0.00000E+000   0.00000E+000   0.00000E+000   0.27480E-002   0.00000E+000   0.00000E+000   0.00000E+000   0.27480E-002
   0.66280E-002   0.00000E+000   0.00000E+000   0.00000E+000   0.66280E-002   0.00000E+000   0.00000E+000   0.00000E+000   0.66280E-002
   0.72490E-002   0.00000E+000   0.00000E+000   0.00000E+000   0.72490E-002   0.00000E+000   0.00000E+000   0.00000E+000   0.72490E-002
   0.72780E-002   0.00000E+000   0.00000E+000   0.00000E+000   0.72780E-002   0.00000E+000   0.00000E+000   0.00000E+000   0.72780E-002
   0.64620E-002   0.00000E+000   0.00000E+000   0.00000E+000   0.64620E-002   0.00000E+000   0.00000E+000   0.00000E+000   0.64620E-002
   0.10000E-001   0.00000E+000   0.00000E+000   0.00000E+000   0.10000E-001   0.00000E+000   0.00000E+000   0.00000E+000   0.10000E-001
   0.95610E-002   0.00000E+000   0.00000E+000   0.00000E+000   0.95610E-002   0.00000E+000   0.00000E+000   0.00000E+000   0.95610E-002
   0.10000E-001   0.00000E+000   0.00000E+000   0.00000E+000   0.10000E-001   0.00000E+000   0.00000E+000   0.00000E+000   0.10000E-001
   0.72270E-002   0.00000E+000   0.00000E+000   0.00000E+000   0.72270E-002   0.00000E+000   0.00000E+000   0.00000E+000   0.72270E-002
   0.64430E-002   0.00000E+000   0.00000E+000   0.00000E+000   0.64430E-002   0.00000E+000   0.00000E+000   0.00000E+000   0.64430E-002
   0.27280E-002   0.00000E+000   0.00000E+000   0.00000E+000   0.27280E-002   0.00000E+000   0.00000E+000   0.00000E+000   0.27280E-002
   0.91030E-002   0.00000E+000   0.00000E+000   0.00000E+000   0.91030E-002   0.00000E+000   0.00000E+000   0.00000E+000   0.91030E-002
   0.80800E-002   0.00000E+000   0.00000E+000   0.00000E+000   0.80800E-002   0.00000E+000   0.00000E+000   0.00000E+000   0.80800E-002
   0.53810E-002   0.00000E+000   0.00000E+000   0.00000E+000   0.53810E-002   0.00000E+000   0.00000E+000   0.00000E+000   0.53810E-002
   0.00000E+000   0.00000E+000   0.00000E+000   0.00000E+000   0.00000E+000   0.00000E+000   0.00000E+000   0.00000E+000   0.00000E+000
   0.18350E-002   0.00000E+000   0.00000E+000   0.00000E+000   0.18350E-002   0.00000E+000   0.00000E+000   0.00000E+000   0.18350E-002
   0.10000E-001   0.00000E+000   0.00000E+000   0.00000E+000   0.10000E-001   0.00000E+000   0.00000E+000   0.00000E+000   0.10000E-001
   0.81480E-002   0.00000E+000   0.00000E+000   0.00000E+000   0.81480E-002   0.00000E+000   0.00000E+000   0.00000E+000   0.81480E-002
   0.00000E+000   0.00000E+000   0.00000E+000   0.00000E+000   0.00000E+000   0.00000E+000   0.00000E+000   0.00000E+000   0.00000E+000
   0.00000E+000   0.00000E+000   0.00000E+000   0.00000E+000   0.00000E+000   0.00000E+000   0.00000E+000   0.00000E+000   0.00000E+000
   0.87000E-003   0.00000E+000   0.00000E+000   0.00000E+000   0.87000E-003   0.00000E+000   0.00000E+000   0.00000E+000   0.87000E-003
   0.10000E-001   0.00000E+000   0.00000E+000   0.00000E+000   0.10000E-001   0.00000E+000   0.00000E+000   0.00000E+000   0.10000E-001
   0.10000E-001   0.00000E+000   0.00000E+000   0.00000E+000   0.10000E-001   0.00000E+000   0.00000E+000   0.00000E+000   0.10000E-001
   0.10000E-001   0.00000E+000   0.00000E+000   0.00000E+000   0.10000E-001   0.00000E+000   0.00000E+000   0.00000E+000   0.10000E-001
   0.10000E-001   0.00000E+000   0.00000E+000   0.00000E+000   0.10000E-001   0.00000E+000   0.00000E+000   0.00000E+000   0.10000E-001
   0.17670E-002   0.00000E+000   0.00000E+000   0.00000E+000   0.17670E-002   0.00000E+000   0.00000E+000   0.00000E+000   0.17670E-002
   0.10000E-001   0.00000E+000   0.00000E+000   0.00000E+000   0.10000E-001   0.00000E+000   0.00000E+000   0.00000E+000   0.10000E-001
   0.17540E-002   0.00000E+000   0.00000E+000   0.00000E+000   0.17540E-002   0.00000E+000   0.00000E+000   0.00000E+000   0.17540E-002
   0.17630E-002   0.00000E+000   0.00000E+000   0.00000E+000   0.17630E-002   0.00000E+000   0.00000E+000   0.00000E+000   0.17630E-002
   0.87600E-003   0.00000E+000   0.00000E+000   0.00000E+000   0.87600E-003   0.00000E+000   0.00000E+000   0.00000E+000   0.87600E-003
   0.00000E+000   0.00000E+000   0.00000E+000   0.00000E+000   0.00000E+000   0.00000E+000   0.00000E+000   0.00000E+000   0.00000E+000
   0.10000E-001   0.00000E+000   0.00000E+000   0.00000E+000   0.10000E-001   0.00000E+000   0.00000E+000   0.00000E+000   0.10000E-001
   0.10000E-001   0.00000E+000   0.00000E+000   0.00000E+000   0.10000E-001   0.00000E+000   0.00000E+000   0.00000E+000   0.10000E-001
   0.10000E-001   0.00000E+000   0.00000E+000   0.00000E+000   0.10000E-001   0.00000E+000   0.00000E+000   0.00000E+000   0.10000E-001
   0.90930E-002   0.00000E+000   0.00000E+000   0.00000E+000   0.90930E-002   0.00000E+000   0.00000E+000   0.00000E+000   0.90930E-002
   0.81590E-002   0.00000E+000   0.00000E+000   0.00000E+000   0.81590E-002   0.00000E+000   0.00000E+000   0.00000E+000   0.81590E-002
   0.10000E-001   0.00000E+000   0.00000E+000   0.00000E+000   0.10000E-001   0.00000E+000   0.00000E+000   0.00000E+000   0.10000E-001
   0.88900E-003   0.00000E+000   0.00000E+000   0.00000E+000   0.88900E-003   0.00000E+000   0.00000E+000   0.00000E+000   0.88900E-003
   0.00000E+000   0.00000E+000   0.00000E+000   0.00000E+000   0.00000E+000   0.00000E+000   0.00000E+000   0.00000E+000   0.00000E+000
   0.17460E-002   0.00000E+000   0.00000E+000   0.00000E+000   0.17460E-002   0.00000E+000   0.00000E+000   0.00000E+000   0.17460E-002
   0.44870E-002   0.00000E+000   0.00000E+000   0.00000E+000   0.44870E-002   0.00000E+000   0.00000E+000   0.00000E+000   0.44870E-002
   0.43910E-002   0.00000E+000   0.00000E+000   0.00000E+000   0.43910E-002   0.00000E+000   0.00000E+000   0.00000E+000   0.43910E-002
   0.10000E-001   0.00000E+000   0.00000E+000   0.00000E+000   0.10000E-001   0.00000E+000   0.00000E+000   0.00000E+000   0.10000E-001
   0.10000E-001   0.00000E+000   0.00000E+000   0.00000E+000   0.10000E-001   0.00000E+000   0.00000E+000   0.00000E+000   0.10000E-001
   0.00000E+000   0.00000E+000   0.00000E+000   0.00000E+000   0.00000E+000   0.00000E+000   0.00000E+000   0.00000E+000   0.00000E+000
   0.91010E-002   0.00000E+000   0.00000E+000   0.00000E+000   0.91010E-002   0.00000E+000   0.00000E+000   0.00000E+000   0.91010E-002
   0.17460E-002   0.00000E+000   0.00000E+000   0.00000E+000   0.17460E-002   0.00000E+000   0.00000E+000   0.00000E+000   0.17460E-002
   0.88100E-003   0.00000E+000   0.00000E+000   0.00000E+000   0.88100E-003   0.00000E+000   0.00000E+000   0.00000E+000   0.88100E-003
   0.00000E+000   0.00000E+000   0.00000E+000   0.00000E+000   0.00000E+000   0.00000E+000   0.00000E+000   0.00000E+000   0.00000E+000
   0.26180E-002   0.00000E+000   0.00000E+000   0.00000E+000   0.26180E-002   0.00000E+000   0.00000E+000   0.00000E+000   0.26180E-002
   0.10000E-001   0.00000E+000   0.00000E+000   0.00000E+000   0.10000E-001   0.00000E+000   0.00000E+000   0.00000E+000   0.10000E-001
   0.10000E-001   0.00000E+000   0.00000E+000   0.00000E+000   0.10000E-001   0.00000E+000   0.00000E+000   0.00000E+000   0.10000E-001
   0.44920E-002   0.00000E+000   0.00000E+000   0.00000E+000   0.44920E-002   0.00000E+000   0.00000E+000   0.00000E+000   0.44920E-002
   0.36150E-002   0.00000E+000   0.00000E+000   0.00000E+000   0.36150E-002   0.00000E+000   0.00000E+000   0.00000E+000   0.36150E-002
   0.35990E-002   0.00000E+000   0.00000E+000   0.00000E+000   0.35990E-002   0.00000E+000   0.00000E+000   0.00000E+000   0.35990E-002
   0.90970E-002   0.00000E+000   0.00000E+000   0.00000E+000   0.90970E-002   0.00000E+000   0.00000E+000   0.00000E+000   0.90970E-002
   0.00000E+000   0.00000E+000   0.00000E+000   0.00000E+000   0.00000E+000   0.00000E+000   0.00000E+000   0.00000E+000   0.00000E+000
   0.64560E-002   0.00000E+000   0.00000E+000   0.00000E+000   0.64560E-002   0.00000E+000   0.00000E+000   0.00000E+000   0.64560E-002
   0.35640E-002   0.00000E+000   0.00000E+000   0.00000E+000   0.35640E-002   0.00000E+000   0.00000E+000   0.00000E+000   0.35640E-002
   0.35610E-002   0.00000E+000   0.00000E+000   0.00000E+000   0.35610E-002   0.00000E+000   0.00000E+000   0.00000E+000   0.35610E-002
   0.00000E+000   0.00000E+000   0.00000E+000   0.00000E+000   0.00000E+000   0.00000E+000   0.00000E+000   0.00000E+000   0.00000E+000
   0.10000E-001   0.00000E+000   0.00000E+000   0.00000E+000   0.10000E-001   0.00000E+000   0.00000E+000   0.00000E+000   0.10000E-001
   0.35870E-002   0.00000E+000   0.00000E+000   0.00000E+000   0.35870E-002   0.00000E+000   0.00000E+000   0.00000E+000   0.35870E-002
   0.44270E-002   0.00000E+000   0.00000E+000   0.00000E+000   0.44270E-002   0.00000E+000   0.00000E+000   0.00000E+000   0.44270E-002
   0.10000E-001   0.00000E+000   0.00000E+000   0.00000E+000   0.10000E-001   0.00000E+000   0.00000E+000   0.00000E+000   0.10000E-001
   0.00000E+000   0.00000E+000   0.00000E+000   0.00000E+000   0.00000E+000   0.00000E+000   0.00000E+000   0.00000E+000   0.00000E+000
   0.10000E-001   0.00000E+000   0.00000E+000   0.00000E+000   0.10000E-001   0.00000E+000   0.00000E+000   0.00000E+000   0.10000E-001
   0.00000E+000   0.00000E+000   0.00000E+000   0.00000E+000   0.00000E+000   0.00000E+000   0.00000E+000   0.00000E+000   0.00000E+000
   0.52090E-002   0.00000E+000   0.00000E+000   0.00000E+000   0.52090E-002   0.00000E+000   0.00000E+000   0.00000E+000   0.52090E-002
   0.53400E-002   0.00000E+000   0.00000E+000   0.00000E+000   0.53400E-002   0.00000E+000   0.00000E+000   0.00000E+000   0.53400E-002
   0.34670E-002   0.00000E+000   0.00000E+000   0.00000E+000   0.34670E-002   0.00000E+000   0.00000E+000   0.00000E+000   0.34670E-002
   0.42200E-002   0.00000E+000   0.00000E+000   0.00000E+000   0.42200E-002   0.00000E+000   0.00000E+000   0.00000E+000   0.42200E-002
   0.72290E-002   0.00000E+000   0.00000E+000   0.00000E+000   0.72290E-002   0.00000E+000   0.00000E+000   0.00000E+000   0.72290E-002
   0.26210E-002   0.00000E+000   0.00000E+000   0.00000E+000   0.26210E-002   0.00000E+000   0.00000E+000   0.00000E+000   0.26210E-002
   0.34900E-002   0.00000E+000   0.00000E+000   0.00000E+000   0.34900E-002   0.00000E+000   0.00000E+000   0.00000E+000   0.34900E-002
   0.17500E-002   0.00000E+000   0.00000E+000   0.00000E+000   0.17500E-002   0.00000E+000   0.00000E+000   0.00000E+000   0.17500E-002
   0.17490E-002   0.00000E+000   0.00000E+000   0.00000E+000   0.17490E-002   0.00000E+000   0.00000E+000   0.00000E+000   0.17490E-002
   0.62640E-002   0.00000E+000   0.00000E+000   0.00000E+000   0.62640E-002   0.00000E+000   0.00000E+000   0.00000E+000   0.62640E-002
   0.10000E-001   0.00000E+000   0.00000E+000   0.00000E+000   0.10000E-001   0.00000E+000   0.00000E+000   0.00000E+000   0.10000E-001
   0.26660E-002   0.00000E+000   0.00000E+000   0.00000E+000   0.26660E-002   0.00000E+000   0.00000E+000   0.00000E+000   0.26660E-002
   0.35770E-002   0.00000E+000   0.00000E+000   0.00000E+000   0.35770E-002   0.00000E+000   0.00000E+000   0.00000E+000   0.35770E-002
   0.26680E-002   0.00000E+000   0.00000E+000   0.00000E+000   0.26680E-002   0.00000E+000   0.00000E+000   0.00000E+000   0.26680E-002
   0.72170E-002   0.00000E+000   0.00000E+000   0.00000E+000   0.72170E-002   0.00000E+000   0.00000E+000   0.00000E+000   0.72170E-002
   0.00000E+000   0.00000E+000   0.00000E+000   0.00000E+000   0.00000E+000   0.00000E+000   0.00000E+000   0.00000E+000   0.00000E+000
   0.26520E-002   0.00000E+000   0.00000E+000   0.00000E+000   0.26520E-002   0.00000E+000   0.00000E+000   0.00000E+000   0.26520E-002
   0.35590E-002   0.00000E+000   0.00000E+000   0.00000E+000   0.35590E-002   0.00000E+000   0.00000E+000   0.00000E+000   0.35590E-002
   0.26530E-002   0.00000E+000   0.00000E+000   0.00000E+000   0.26530E-002   0.00000E+000   0.00000E+000   0.00000E+000   0.26530E-002
   0.26580E-002   0.00000E+000   0.00000E+000   0.00000E+000   0.26580E-002   0.00000E+000   0.00000E+000   0.00000E+000   0.26580E-002
   0.10000E-001   0.00000E+000   0.00000E+000   0.00000E+000   0.10000E-001   0.00000E+000   0.00000E+000   0.00000E+000   0.10000E-001
   0.10000E-001   0.00000E+000   0.00000E+000   0.00000E+000   0.10000E-001   0.00000E+000   0.00000E+000   0.00000E+000   0.10000E-001
   0.10000E-001   0.00000E+000   0.00000E+000   0.00000E+000   0.10000E-001   0.00000E+000   0.00000E+000   0.00000E+000   0.10000E-001
   0.00000E+000   0.00000E+000   0.00000E+000   0.00000E+000   0.00000E+000   0.00000E+000   0.00000E+000   0.00000E+000   0.00000E+000
   0.62520E-002   0.00000E+000   0.00000E+000   0.00000E+000   0.62520E-002   0.00000E+000   0.00000E+000   0.00000E+000   0.62520E-002
   0.00000E+000   0.00000E+000   0.00000E+000   0.00000E+000   0.00000E+000   0.00000E+000   0.00000E+000   0.00000E+000   0.00000E+000
   0.10000E-001   0.00000E+000   0.00000E+000   0.00000E+000   0.10000E-001   0.00000E+000   0.00000E+000   0.00000E+000   0.10000E-001
   0.63480E-002   0.00000E+000   0.00000E+000   0.00000E+000   0.63480E-002   0.00000E+000   0.00000E+000   0.00000E+000   0.63480E-002
   0.10000E-001   0.00000E+000   0.00000E+000   0.00000E+000   0.10000E-001   0.00000E+000   0.00000E+000   0.00000E+000   0.10000E-001
   0.35600E-002   0.00000E+000   0.00000E+000   0.00000E+000   0.35600E-002   0.00000E+000   0.00000E+000   0.00000E+000   0.35600E-002
TENSORS stressB         double
   0.63850E-002   0.00000E+000   0.00000E+000   0.00000E+000   0.63850E-002   0.00000E+000   0.00000E+000   0.00000E+000   0.63850E-002
   0.73389E-002   0.00000E+000   0.00000E+000   0.00000E+000   0.73389E-002   0.00000E+000   0.00000E+000   0.00000E+000   0.73389E-002
   0.72600E-002   0.00000E+000   0.00000E+000   0.00000E+000   0.72600E-002   0.00000E+000   0.00000E+000   0.00000E+000   0.72600E-002
   0.64839E-002   0.00000E+000   0.00000E+000   0.00000E+000   0.64839E-002   0.00000E+000   0.00000E+000   0.00000E+000   0.64839E-002
   0.73010E-002   0.00000E+000   0.00000E+000   0.00000E+000   0.73010E-002   0.00000E+000   0.00000E+000   0.00000E+000   0.73010E-002
   0.61842E-002   0.00000E+000   0.00000E+000   0.00000E+000   0.61842E-002   0.00000E+000   0.00000E+000   0.00000E+000   0.61842E-002
   0.56218E-002   0.00000E+000   0.00000E+000   0.00000E+000   0.56218E-002   0.00000E+000   0.00000E+000   0.00000E+000   0.56218E-002
   0.99890E-002   0.00000E+000   0.00000E+000   0.00000E+000   0.99890E-002   0.00000E+000   0.00000E+000   0.00000E+000   0.99890E-002
   0.99890E-002   0.00000E+000   0.00000E+000   0.00000E+000   0.99890E-002   0.00000E+000   0.00000E+000   0.00000E+000   0.99890E-002
   0.91090E-002   0.00000E+000   0.00000E+000   0.00000E+000   0.91090E-002   0.00000E+000   0.00000E+000   0.00000E+000   0.91090E-002
   0.99890E-002   0.00000E+000   0.00000E+000   0.00000E+000   0.99890E-002   0.00000E+000   0.00000E+000   0.00000E+000   0.99890E-002
   0.63650E-002   0.00000E+000   0.00000E+000   0.00000E+000   0.63650E-002   0.00000E+000   0.00000E+000   0.00000E+000   0.63650E-002
   0.63470E-002   0.00000E+000   0.00000E+000   0.00000E+000   0.63470E-002   0.00000E+000   0.00000E+000   0.00000E+000   0.63470E-002
   0.70572E-002   0.00000E+000   0.00000E+000   0.00000E+000   0.70572E-002   0.00000E+000   0.00000E+000   0.00000E+000   0.70572E-002
   0.63910E-002   0.00000E+000   0.00000E+000   0.00000E+000   0.63910E-002   0.00000E+000   0.00000E+000   0.00000E+000   0.63910E-002
   0.59934E-002   0.00000E+000   0.00000E+000   0.00000E+000   0.59934E-002   0.00000E+000   0.00000E+000   0.00000E+000   0.59934E-002
   0.55179E-002   0.00000E+000   0.00000E+000   0.00000E+000   0.55179E-002   0.00000E+000   0.00000E+000   0.00000E+000   0.55179E-002
   0.73499E-002   0.00000E+000   0.00000E+000   0.00000E+000   0.73499E-002   0.00000E+000   0.00000E+000   0.00000E+000   0.73499E-002
   0.72670E-002   0.00000E+000   0.00000E+000   0.00000E+000   0.72670E-002   0.00000E+000   0.00000E+000   0.00000E+000   0.72670E-002
   0.80811E-002   0.00000E+000   0.00000E+000   0.00000E+000   0.80811E-002   0.00000E+000   0.00000E+000   0.00000E+000   0.80811E-002
   0.80222E-002   0.00000E+000   0.00000E+000   0.00000E+000   0.80222E-002   0.00000E+000   0.00000E+000   0.00000E+000   0.80222E-002
   0.71441E-002   0.00000E+000   0.00000E+000   0.00000E+000   0.71441E-002   0.00000E+000   0.00000E+000   0.00000E+000   0.71441E-002
   0.86804E-002   0.00000E+000   0.00000E+000   0.00000E+000   0.86804E-002   0.00000E+000   0.00000E+000   0.00000E+000   0.86804E-002
   0.85696E-002   0.00000E+000   0.00000E+000   0.00000E+000   0.85696E-002   0.00000E+000   0.00000E+000   0.00000E+000   0.85696E-002
   0.72131E-002   0.00000E+000   0.00000E+000   0.00000E+000   0.72131E-002   0.00000E+000   0.00000E+000   0.00000E+000   0.72131E-002
   0.64439E-002   0.00000E+000   0.00000E+000   0.00000E+000   0.64439E-002   0.00000E+000   0.00000E+000   0.00000E+000   0.64439E-002
   0.32864E-002   0.00000E+000   0.00000E+000   0.00000E+000   0.32864E-002   0.00000E+000   0.00000E+000   0.00000E+000   0.32864E-002
   0.39237E-002   0.00000E+000   0.00000E+000   0.00000E+000   0.39237E-002   0.00000E+000   0.00000E+000   0.00000E+000   0.39237E-002
   0.37569E-002   0.00000E+000   0.00000E+000   0.00000E+000   0.37569E-002   0.00000E+000   0.00000E+000   0.00000E+000   0.37569E-002
   0.35391E-002   0.00000E+000   0.00000E+000   0.00000E+000   0.35391E-002   0.00000E+000   0.00000E+000   0.00000E+000   0.35391E-002
   0.44022E-002   0.00000E+000   0.00000E+000   0.00000E+000   0.44022E-002   0.00000E+000   0.00000E+000   0.00000E+000   0.44022E-002
   0.34981E-002   0.00000E+000   0.00000E+000   0.00000E+000   0.34981E-002   0.00000E+000   0.00000E+000   0.00000E+000   0.34981E-002
   0.27010E-002   0.00000E+000   0.00000E+000   0.00000E+000   0.27010E-002   0.00000E+000   0.00000E+000   0.00000E+000   0.27010E-002
   0.27779E-002   0.00000E+000   0.00000E+000   0.00000E+000   0.27779E-002   0.00000E+000   0.00000E+000   0.00000E+000   0.27779E-002
   0.36050E-002   0.00000E+000   0.00000E+000   0.00000E+000   0.36050E-002   0.00000E+000   0.00000E+000   0.00000E+000   0.36050E-002
   0.33693E-002   0.00000E+000   0.00000E+000   0.00000E+000   0.33693E-002   0.00000E+000   0.00000E+000   0.00000E+000   0.33693E-002
   0.30227E-002   0.00000E+000   0.00000E+000   0.00000E+000   0.30227E-002   0.00000E+000   0.00000E+000   0.00000E+000   0.30227E-002
   0.40945E-002   0.00000E+000   0.00000E+000   0.00000E+000   0.40945E-002   0.00000E+000   0.00000E+000   0.00000E+000   0.40945E-002
   0.47757E-002   0.00000E+000   0.00000E+000   0.00000E+000   0.47757E-002   0.00000E+000   0.00000E+000   0.00000E+000   0.47757E-002
   0.42473E-002   0.00000E+000   0.00000E+000   0.00000E+000   0.42473E-002   0.00000E+000   0.00000E+000   0.00000E+000   0.42473E-002
   0.34902E-002   0.00000E+000   0.00000E+000   0.00000E+000   0.34902E-002   0.00000E+000   0.00000E+000   0.00000E+000   0.34902E-002
   0.26950E-002   0.00000E+000   0.00000E+000   0.00000E+000   0.26950E-002   0.00000E+000   0.00000E+000   0.00000E+000   0.26950E-002
   0.26691E-002   0.00000E+000   0.00000E+000   0.00000E+000   0.26691E-002   0.00000E+000   0.00000E+000   0.00000E+000   0.26691E-002
   0.49675E-002   0.00000E+000   0.00000E+000   0.00000E+000   0.49675E-002   0.00000E+000   0.00000E+000   0.00000E+000   0.49675E-002
   0.58026E-002   0.00000E+000   0.00000E+000   0.00000E+000   0.58026E-002   0.00000E+000   0.00000E+000   0.00000E+000   0.58026E-002
   0.55569E-002   0.00000E+000   0.00000E+000   0.00000E+000   0.55569E-002   0.00000E+000   0.00000E+000   0.00000E+000   0.55569E-002
   0.53012E-002   0.00000E+000   0.00000E+000   0.00000E+000   0.53012E-002   0.00000E+000   0.00000E+000   0.00000E+000   0.53012E-002
   0.55519E-002   0.00000E+000   0.00000E+000   0.00000E+000   0.55519E-002   0.00000E+000   0.00000E+000   0.00000E+000   0.55519E-002
   0.56588E-002   0.00000E+000   0.00000E+000   0.00000E+000   0.56588E-002   0.00000E+000   0.00000E+000   0.00000E+000   0.56588E-002
   0.44591E-002   0.00000E+000   0.00000E+000   0.00000E+000   0.44591E-002   0.00000E+000   0.00000E+000   0.00000E+000   0.44591E-002
   0.55359E-002   0.00000E+000   0.00000E+000   0.00000E+000   0.55359E-002   0.00000E+000   0.00000E+000   0.00000E+000   0.55359E-002
   0.49625E-002   0.00000E+000   0.00000E+000   0.00000E+000   0.49625E-002   0.00000E+000   0.00000E+000   0.00000E+000   0.49625E-002
   0.42243E-002   0.00000E+000   0.00000E+000   0.00000E+000   0.42243E-002   0.00000E+000   0.00000E+000   0.00000E+000   0.42243E-002
   0.45510E-002   0.00000E+000   0.00000E+000   0.00000E+000   0.45510E-002   0.00000E+000   0.00000E+000   0.00000E+000   0.45510E-002
   0.54330E-002   0.00000E+000   0.00000E+000   0.00000E+000   0.54330E-002   0.00000E+000   0.00000E+000   0.00000E+000   0.54330E-002
   0.43812E-002   0.00000E+000   0.00000E+000   0.00000E+000   0.43812E-002   0.00000E+000   0.00000E+000   0.00000E+000   0.43812E-002
   0.42463E-002   0.00000E+000   0.00000E+000   0.00000E+000   0.42463E-002   0.00000E+000   0.00000E+000   0.00000E+000   0.42463E-002
   0.51204E-002   0.00000E+000   0.00000E+000   0.00000E+000   0.51204E-002   0.00000E+000   0.00000E+000   0.00000E+000   0.51204E-002
   0.46689E-002   0.00000E+000   0.00000E+000   0.00000E+000   0.46689E-002   0.00000E+000   0.00000E+000   0.00000E+000   0.46689E-002
   0.45100E-002   0.00000E+000   0.00000E+000   0.00000E+000   0.45100E-002   0.00000E+000   0.00000E+000   0.00000E+000   0.45100E-002
   0.54100E-002   0.00000E+000   0.00000E+000   0.00000E+000   0.54100E-002   0.00000E+000   0.00000E+000   0.00000E+000   0.54100E-002
   0.51883E-002   0.00000E+000   0.00000E+000   0.00000E+000   0.51883E-002   0.00000E+000   0.00000E+000   0.00000E+000   0.51883E-002
   0.57277E-002   0.00000E+000   0.00000E+000   0.00000E+000   0.57277E-002   0.00000E+000   0.00000E+000   0.00000E+000   0.57277E-002
   0.25872E-002   0.00000E+000   0.00000E+000   0.00000E+000   0.25872E-002   0.00000E+000   0.00000E+000   0.00000E+000   0.25872E-002
   0.18679E-002   0.00000E+000   0.00000E+000   0.00000E+000   0.18679E-002   0.00000E+000   0.00000E+000   0.00000E+000   0.18679E-002
   0.19918E-002   0.00000E+000   0.00000E+000   0.00000E+000   0.19918E-002   0.00000E+000   0.00000E+000   0.00000E+000   0.19918E-002
   0.22615E-002   0.00000E+000   0.00000E+000   0.00000E+000   0.22615E-002   0.00000E+000   0.00000E+000   0.00000E+000   0.22615E-002
   0.10019E-002   0.00000E+000   0.00000E+000   0.00000E+000   0.10019E-002   0.00000E+000   0.00000E+000   0.00000E+000   0.10019E-002
   0.19818E-002   0.00000E+000   0.00000E+000   0.00000E+000   0.19818E-002   0.00000E+000   0.00000E+000   0.00000E+000   0.19818E-002
   0.13156E-002   0.00000E+000   0.00000E+000   0.00000E+000   0.13156E-002   0.00000E+000   0.00000E+000   0.00000E+000   0.13156E-002
   0.13715E-002   0.00000E+000   0.00000E+000   0.00000E+000   0.13715E-002   0.00000E+000   0.00000E+000   0.00000E+000   0.13715E-002
   0.22146E-002   0.00000E+000   0.00000E+000   0.00000E+000   0.22146E-002   0.00000E+000   0.00000E+000   0.00000E+000   0.22146E-002
   0.13315E-002   0.00000E+000   0.00000E+000   0.00000E+000   0.13315E-002   0.00000E+000   0.00000E+000   0.00000E+000   0.13315E-002
   0.21526E-002   0.00000E+000   0.00000E+000   0.00000E+000   0.21526E-002   0.00000E+000   0.00000E+000   0.00000E+000   0.21526E-002
   0.20418E-002   0.00000E+000   0.00000E+000   0.00000E+000   0.20418E-002   0.00000E+000   0.00000E+000   0.00000E+000   0.20418E-002
   0.13575E-002   0.00000E+000   0.00000E+000   0.00000E+000   0.13575E-002   0.00000E+000   0.00000E+000   0.00000E+000   0.13575E-002
   0.20338E-002   0.00000E+000   0.00000E+000   0.00000E+000   0.20338E-002   0.00000E+000   0.00000E+000   0.00000E+000   0.20338E-002
   0.19798E-002   0.00000E+000   0.00000E+000   0.00000E+000   0.19798E-002   0.00000E+000   0.00000E+000   0.00000E+000   0.19798E-002
   0.26800E-002   0.00000E+000   0.00000E+000   0.00000E+000   0.26800E-002   0.00000E+000   0.00000E+000   0.00000E+000   0.26800E-002
   0.13215E-002   0.00000E+000   0.00000E+000   0.00000E+000   0.13215E-002   0.00000E+000   0.00000E+000   0.00000E+000   0.13215E-002
   0.19918E-002   0.00000E+000   0.00000E+000   0.00000E+000   0.19918E-002   0.00000E+000   0.00000E+000   0.00000E+000   0.19918E-002
   0.28129E-002   0.00000E+000   0.00000E+000   0.00000E+000   0.28129E-002   0.00000E+000   0.00000E+000   0.00000E+000   0.28129E-002
   0.27699E-002   0.00000E+000   0.00000E+000   0.00000E+000   0.27699E-002   0.00000E+000   0.00000E+000   0.00000E+000   0.27699E-002
   0.00000E+000   0.00000E+000   0.00000E+000   0.00000E+000   0.00000E+000   0.00000E+000   0.00000E+000   0.00000E+000   0.00000E+000
   0.59734E-003   0.00000E+000   0.00000E+000   0.00000E+000   0.59734E-003   0.00000E+000   0.00000E+000   0.00000E+000   0.59734E-003
   0.68425E-003   0.00000E+000   0.00000E+000   0.00000E+000   0.68425E-003   0.00000E+000   0.00000E+000   0.00000E+000   0.68425E-003
   0.71521E-003   0.00000E+000   0.00000E+000   0.00000E+000   0.71521E-003   0.00000E+000   0.00000E+000   0.00000E+000   0.71521E-003
   0.12866E-002   0.00000E+000   0.00000E+000   0.00000E+000   0.12866E-002   0.00000E+000   0.00000E+000   0.00000E+000   0.12866E-002
   0.68824E-003   0.00000E+000   0.00000E+000   0.00000E+000   0.68824E-003   0.00000E+000   0.00000E+000   0.00000E+000   0.68824E-003
   0.61532E-003   0.00000E+000   0.00000E+000   0.00000E+000   0.61532E-003   0.00000E+000   0.00000E+000   0.00000E+000   0.61532E-003
   0.10478E-002   0.00000E+000   0.00000E+000   0.00000E+000   0.10478E-002   0.00000E+000   0.00000E+000   0.00000E+000   0.10478E-002
   0.80811E-003   0.00000E+000   0.00000E+000   0.00000E+000   0.80811E-003   0.00000E+000   0.00000E+000   0.00000E+000   0.80811E-003
   0.65328E-003   0.00000E+000   0.00000E+000   0.00000E+000   0.65328E-003   0.00000E+000   0.00000E+000   0.00000E+000   0.65328E-003
   0.14604E-002   0.00000E+000   0.00000E+000   0.00000E+000   0.14604E-002   0.00000E+000   0.00000E+000   0.00000E+000   0.14604E-002
   0.13445E-002   0.00000E+000   0.00000E+000   0.00000E+000   0.13445E-002   0.00000E+000   0.00000E+000   0.00000E+000   0.13445E-002
   0.78793E-002   0.00000E+000   0.00000E+000   0.00000E+000   0.78793E-002   0.00000E+000   0.00000E+000   0.00000E+000   0.78793E-002
   0.80092E-002   0.00000E+000   0.00000E+000   0.00000E+000   0.80092E-002   0.00000E+000   0.00000E+000   0.00000E+000   0.80092E-002
   0.73179E-002   0.00000E+000   0.00000E+000   0.00000E+000   0.73179E-002   0.00000E+000   0.00000E+000   0.00000E+000   0.73179E-002
   0.36560E-002   0.00000E+000   0.00000E+000   0.00000E+000   0.36560E-002   0.00000E+000   0.00000E+000   0.00000E+000   0.36560E-002
   0.34312E-002   0.00000E+000   0.00000E+000   0.00000E+000   0.34312E-002   0.00000E+000   0.00000E+000   0.00000E+000   0.34312E-002
   0.30636E-002   0.00000E+000   0.00000E+000   0.00000E+000   0.30636E-002   0.00000E+000   0.00000E+000   0.00000E+000   0.30636E-002
   0.37649E-002   0.00000E+000   0.00000E+000   0.00000E+000   0.37649E-002   0.00000E+000   0.00000E+000   0.00000E+000   0.37649E-002
   0.43962E-002   0.00000E+000   0.00000E+000   0.00000E+000   0.43962E-002   0.00000E+000   0.00000E+000   0.00000E+000   0.43962E-002
   0.46009E-002   0.00000E+000   0.00000E+000   0.00000E+000   0.46009E-002   0.00000E+000   0.00000E+000   0.00000E+000   0.46009E-002
   0.46179E-002   0.00000E+000   0.00000E+000   0.00000E+000   0.46179E-002   0.00000E+000   0.00000E+000   0.00000E+000   0.46179E-002
   0.33423E-002   0.00000E+000   0.00000E+000   0.00000E+000   0.33423E-002   0.00000E+000   0.00000E+000   0.00000E+000   0.33423E-002
   0.35950E-002   0.00000E+000   0.00000E+000   0.00000E+000   0.35950E-002   0.00000E+000   0.00000E+000   0.00000E+000   0.35950E-002
   0.36949E-002   0.00000E+000   0.00000E+000   0.00000E+000   0.36949E-002   0.00000E+000   0.00000E+000   0.00000E+000   0.36949E-002
   0.37409E-002   0.00000E+000   0.00000E+000   0.00000E+000   0.37409E-002   0.00000E+000   0.00000E+000   0.00000E+000   0.37409E-002
   0.44761E-002   0.00000E+000   0.00000E+000   0.00000E+000   0.44761E-002   0.00000E+000   0.00000E+000   0.00000E+000   0.44761E-002
   0.11747E-002   0.00000E+000   0.00000E+000   0.00000E+000   0.11747E-002   0.00000E+000   0.00000E+000   0.00000E+000   0.11747E-002
   0.18270E-002   0.00000E+000   0.00000E+000   0.00000E+000   0.18270E-002   0.00000E+000   0.00000E+000   0.00000E+000   0.18270E-002
   0.90301E-003   0.00000E+000   0.00000E+000   0.00000E+000   0.90301E-003   0.00000E+000   0.00000E+000   0.00000E+000   0.90301E-003
   0.18120E-002   0.00000E+000   0.00000E+000   0.00000E+000   0.18120E-002   0.00000E+000   0.00000E+000   0.00000E+000   0.18120E-002
   0.85146E-002   0.00000E+000   0.00000E+000   0.00000E+000   0.85146E-002   0.00000E+000   0.00000E+000   0.00000E+000   0.85146E-002
   0.91809E-002   0.00000E+000   0.00000E+000   0.00000E+000   0.91809E-002   0.00000E+000   0.00000E+000   0.00000E+000   0.91809E-002
   0.86625E-002   0.00000E+000   0.00000E+000   0.00000E+000   0.86625E-002   0.00000E+000   0.00000E+000   0.00000E+000   0.86625E-002
   0.85706E-002   0.00000E+000   0.00000E+000   0.00000E+000   0.85706E-002   0.00000E+000   0.00000E+000   0.00000E+000   0.85706E-002
   0.58126E-002   0.00000E+000   0.00000E+000   0.00000E+000   0.58126E-002   0.00000E+000   0.00000E+000   0.00000E+000   0.58126E-002
   0.56588E-002   0.00000E+000   0.00000E+000   0.00000E+000   0.56588E-002   0.00000E+000   0.00000E+000   0.00000E+000   0.56588E-002
   0.60284E-002   0.00000E+000   0.00000E+000   0.00000E+000   0.60284E-002   0.00000E+000   0.00000E+000   0.00000E+000   0.60284E-002
   0.65048E-002   0.00000E+000   0.00000E+000   0.00000E+000   0.65048E-002   0.00000E+000   0.00000E+000   0.00000E+000   0.65048E-002
   0.91030E-002   0.00000E+000   0.00000E+000   0.00000E+000   0.91030E-002   0.00000E+000   0.00000E+000   0.00000E+000   0.91030E-002
   0.79872E-002   0.00000E+000   0.00000E+000   0.00000E+000   0.79872E-002   0.00000E+000   0.00000E+000   0.00000E+000   0.79872E-002
   0.78593E-002   0.00000E+000   0.00000E+000   0.00000E+000   0.78593E-002   0.00000E+000   0.00000E+000   0.00000E+000   0.78593E-002
   0.83708E-002   0.00000E+000   0.00000E+000   0.00000E+000   0.83708E-002   0.00000E+000   0.00000E+000   0.00000E+000   0.83708E-002
   0.81121E-002   0.00000E+000   0.00000E+000   0.00000E+000   0.81121E-002   0.00000E+000   0.00000E+000   0.00000E+000   0.81121E-002
   0.87813E-002   0.00000E+000   0.00000E+000   0.00000E+000   0.87813E-002   0.00000E+000   0.00000E+000   0.00000E+000   0.87813E-002
   0.90850E-002   0.00000E+000   0.00000E+000   0.00000E+000   0.90850E-002   0.00000E+000   0.00000E+000   0.00000E+000   0.90850E-002
   0.62861E-002   0.00000E+000   0.00000E+000   0.00000E+000   0.62861E-002   0.00000E+000   0.00000E+000   0.00000E+000   0.62861E-002
   0.75657E-002   0.00000E+000   0.00000E+000   0.00000E+000   0.75657E-002   0.00000E+000   0.00000E+000   0.00000E+000   0.75657E-002
   0.69603E-002   0.00000E+000   0.00000E+000   0.00000E+000   0.69603E-002   0.00000E+000   0.00000E+000   0.00000E+000   0.69603E-002
   0.69733E-002   0.00000E+000   0.00000E+000   0.00000E+000   0.69733E-002   0.00000E+000   0.00000E+000   0.00000E+000   0.69733E-002
   0.63940E-002   0.00000E+000   0.00000E+000   0.00000E+000   0.63940E-002   0.00000E+000   0.00000E+000   0.00000E+000   0.63940E-002
   0.65698E-002   0.00000E+000   0.00000E+000   0.00000E+000   0.65698E-002   0.00000E+000   0.00000E+000   0.00000E+000   0.65698E-002
   0.62811E-002   0.00000E+000   0.00000E+000   0.00000E+000   0.62811E-002   0.00000E+000   0.00000E+000   0.00000E+000   0.62811E-002
   0.68515E-002   0.00000E+000   0.00000E+000   0.00000E+000   0.68515E-002   0.00000E+000   0.00000E+000   0.00000E+000   0.68515E-002
   0.62391E-002   0.00000E+000   0.00000E+000   0.00000E+000   0.62391E-002   0.00000E+000   0.00000E+000   0.00000E+000   0.62391E-002
   0.65538E-002   0.00000E+000   0.00000E+000   0.00000E+000   0.65538E-002   0.00000E+000   0.00000E+000   0.00000E+000   0.65538E-002
   0.46539E-002   0.00000E+000   0.00000E+000   0.00000E+000   0.46539E-002   0.00000E+000   0.00000E+000   0.00000E+000   0.46539E-002
   0.54170E-002   0.00000E+000   0.00000E+000   0.00000E+000   0.54170E-002   0.00000E+000   0.00000E+000   0.00000E+000   0.54170E-002
   0.11807E-002   0.00000E+000   0.00000E+000   0.00000E+000   0.11807E-002   0.00000E+000   0.00000E+000   0.00000E+000   0.11807E-002
   0.00000E+000   0.00000E+000   0.00000E+000   0.00000E+000   0.00000E+000   0.00000E+000   0.00000E+000   0.00000E+000   0.00000E+000
   0.90001E-003   0.00000E+000   0.00000E+000   0.00000E+000   0.90001E-003   0.00000E+000   0.00000E+000   0.00000E+000   0.90001E-003
   0.79213E-002   0.00000E+000   0.00000E+000   0.00000E+000   0.79213E-002   0.00000E+000   0.00000E+000   0.00000E+000   0.79213E-002
   0.71311E-002   0.00000E+000   0.00000E+000   0.00000E+000   0.71311E-002   0.00000E+000   0.00000E+000   0.00000E+000   0.71311E-002
   0.91669E-002   0.00000E+000   0.00000E+000   0.00000E+000   0.91669E-002   0.00000E+000   0.00000E+000   0.00000E+000   0.91669E-002
   0.85196E-002   0.00000E+000   0.00000E+000   0.00000E+000   0.85196E-002   0.00000E+000   0.00000E+000   0.00000E+000   0.85196E-002
   0.93038E-002   0.00000E+000   0.00000E+000   0.00000E+000   0.93038E-002   0.00000E+000   0.00000E+000   0.00000E+000   0.93038E-002
   0.65768E-002   0.00000E+000   0.00000E+000   0.00000E+000   0.65768E-002   0.00000E+000   0.00000E+000   0.00000E+000   0.65768E-002
   0.73449E-002   0.00000E+000   0.00000E+000   0.00000E+000   0.73449E-002   0.00000E+000   0.00000E+000   0.00000E+000   0.73449E-002
   0.64339E-002   0.00000E+000   0.00000E+000   0.00000E+000   0.64339E-002   0.00000E+000   0.00000E+000   0.00000E+000   0.64339E-002
   0.73399E-002   0.00000E+000   0.00000E+000   0.00000E+000   0.73399E-002   0.00000E+000   0.00000E+000   0.00000E+000   0.73399E-002
   0.36210E-002   0.00000E+000   0.00000E+000   0.00000E+000   0.36210E-002   0.00000E+000   0.00000E+000   0.00000E+000   0.36210E-002
   0.41624E-002   0.00000E+000   0.00000E+000   0.00000E+000   0.41624E-002   0.00000E+000   0.00000E+000   0.00000E+000   0.41624E-002
   0.48806E-002   0.00000E+000   0.00000E+000   0.00000E+000   0.48806E-002   0.00000E+000   0.00000E+000   0.00000E+000   0.48806E-002
   0.51863E-002   0.00000E+000   0.00000E+000   0.00000E+000   0.51863E-002   0.00000E+000   0.00000E+000   0.00000E+000   0.51863E-002
   0.83478E-002   0.00000E+000   0.00000E+000   0.00000E+000   0.83478E-002   0.00000E+000   0.00000E+000   0.00000E+000   0.83478E-002
   0.83788E-002   0.00000E+000   0.00000E+000   0.00000E+000   0.83788E-002   0.00000E+000   0.00000E+000   0.00000E+000   0.83788E-002
   0.35131E-002   0.00000E+000   0.00000E+000   0.00000E+000   0.35131E-002   0.00000E+000   0.00000E+000   0.00000E+000   0.35131E-002
   0.37609E-002   0.00000E+000   0.00000E+000   0.00000E+000   0.37609E-002   0.00000E+000   0.00000E+000   0.00000E+000   0.37609E-002
   0.34552E-002   0.00000E+000   0.00000E+000   0.00000E+000   0.34552E-002   0.00000E+000   0.00000E+000   0.00000E+000   0.34552E-002
   0.40525E-002   0.00000E+000   0.00000E+000   0.00000E+000   0.40525E-002   0.00000E+000   0.00000E+000   0.00000E+000   0.40525E-002
   0.94386E-002   0.00000E+000   0.00000E+000   0.00000E+000   0.94386E-002   0.00000E+000   0.00000E+000   0.00000E+000   0.94386E-002
   0.99890E-002   0.00000E+000   0.00000E+000   0.00000E+000   0.99890E-002   0.00000E+000   0.00000E+000   0.00000E+000   0.99890E-002
   0.90790E-002   0.00000E+000   0.00000E+000   0.00000E+000   0.90790E-002   0.00000E+000   0.00000E+000   0.00000E+000   0.90790E-002
   0.99890E-002   0.00000E+000   0.00000E+000   0.00000E+000   0.99890E-002   0.00000E+000   0.00000E+000   0.00000E+000   0.99890E-002
   0.80671E-002   0.00000E+000   0.00000E+000   0.00000E+000   0.80671E-002   0.00000E+000   0.00000E+000   0.00000E+000   0.80671E-002
   0.73619E-002   0.00000E+000   0.00000E+000   0.00000E+000   0.73619E-002   0.00000E+000   0.00000E+000   0.00000E+000   0.73619E-002
   0.80032E-002   0.00000E+000   0.00000E+000   0.00000E+000   0.80032E-002   0.00000E+000   0.00000E+000   0.00000E+000   0.80032E-002
   0.86275E-002   0.00000E+000   0.00000E+000   0.00000E+000   0.86275E-002   0.00000E+000   0.00000E+000   0.00000E+000   0.86275E-002
   0.93307E-002   0.00000E+000   0.00000E+000   0.00000E+000   0.93307E-002   0.00000E+000   0.00000E+000   0.00000E+000   0.93307E-002
   0.73779E-002   0.00000E+000   0.00000E+000   0.00000E+000   0.73779E-002   0.00000E+000   0.00000E+000   0.00000E+000   0.73779E-002
   0.26521E-002   0.00000E+000   0.00000E+000   0.00000E+000   0.26521E-002   0.00000E+000   0.00000E+000   0.00000E+000   0.26521E-002
   0.31485E-002   0.00000E+000   0.00000E+000   0.00000E+000   0.31485E-002   0.00000E+000   0.00000E+000   0.00000E+000   0.31485E-002
   0.37349E-002   0.00000E+000   0.00000E+000   0.00000E+000   0.37349E-002   0.00000E+000   0.00000E+000   0.00000E+000   0.37349E-002
   0.27070E-002   0.00000E+000   0.00000E+000   0.00000E+000   0.27070E-002   0.00000E+000   0.00000E+000   0.00000E+000   0.27070E-002
   0.19309E-002   0.00000E+000   0.00000E+000   0.00000E+000   0.19309E-002   0.00000E+000   0.00000E+000   0.00000E+000   0.19309E-002
   0.22955E-002   0.00000E+000   0.00000E+000   0.00000E+000   0.22955E-002   0.00000E+000   0.00000E+000   0.00000E+000   0.22955E-002
   0.20318E-002   0.00000E+000   0.00000E+000   0.00000E+000   0.20318E-002   0.00000E+000   0.00000E+000   0.00000E+000   0.20318E-002
   0.13126E-002   0.00000E+000   0.00000E+000   0.00000E+000   0.13126E-002   0.00000E+000   0.00000E+000   0.00000E+000   0.13126E-002
   0.18140E-002   0.00000E+000   0.00000E+000   0.00000E+000   0.18140E-002   0.00000E+000   0.00000E+000   0.00000E+000   0.18140E-002
   0.57936E-003   0.00000E+000   0.00000E+000   0.00000E+000   0.57936E-003   0.00000E+000   0.00000E+000   0.00000E+000   0.57936E-003
   0.00000E+000   0.00000E+000   0.00000E+000   0.00000E+000   0.00000E+000   0.00000E+000   0.00000E+000   0.00000E+000   0.00000E+000
   0.00000E+000   0.00000E+000   0.00000E+000   0.00000E+000   0.00000E+000   0.00000E+000   0.00000E+000   0.00000E+000   0.00000E+000
   0.00000E+000   0.00000E+000   0.00000E+000   0.00000E+000   0.00000E+000   0.00000E+000   0.00000E+000   0.00000E+000   0.00000E+000
   0.43412E-002   0.00000E+000   0.00000E+000   0.00000E+000   0.43412E-002   0.00000E+000   0.00000E+000   0.00000E+000   0.43412E-002
   0.43832E-002   0.00000E+000   0.00000E+000   0.00000E+000   0.43832E-002   0.00000E+000   0.00000E+000   0.00000E+000   0.43832E-002
   0.45300E-002   0.00000E+000   0.00000E+000   0.00000E+000   0.45300E-002   0.00000E+000   0.00000E+000   0.00000E+000   0.45300E-002
   0.35950E-002   0.00000E+000   0.00000E+000   0.00000E+000   0.35950E-002   0.00000E+000   0.00000E+000   0.00000E+000   0.35950E-002
   0.26910E-002   0.00000E+000   0.00000E+000   0.00000E+000   0.26910E-002   0.00000E+000   0.00000E+000   0.00000E+000   0.26910E-002
   0.26930E-002   0.00000E+000   0.00000E+000   0.00000E+000   0.26930E-002   0.00000E+000   0.00000E+000   0.00000E+000   0.26930E-002
   0.20048E-002   0.00000E+000   0.00000E+000   0.00000E+000   0.20048E-002   0.00000E+000   0.00000E+000   0.00000E+000   0.20048E-002
   0.20108E-002   0.00000E+000   0.00000E+000   0.00000E+000   0.20108E-002   0.00000E+000   0.00000E+000   0.00000E+000   0.20108E-002
   0.25132E-002   0.00000E+000   0.00000E+000   0.00000E+000   0.25132E-002   0.00000E+000   0.00000E+000   0.00000E+000   0.25132E-002
   0.25782E-002   0.00000E+000   0.00000E+000   0.00000E+000   0.25782E-002   0.00000E+000   0.00000E+000   0.00000E+000   0.25782E-002
   0.17371E-002   0.00000E+000   0.00000E+000   0.00000E+000   0.17371E-002   0.00000E+000   0.00000E+000   0.00000E+000   0.17371E-002
   0.45400E-002   0.00000E+000   0.00000E+000   0.00000E+000   0.45400E-002   0.00000E+000   0.00000E+000   0.00000E+000   0.45400E-002
   0.35471E-002   0.00000E+000   0.00000E+000   0.00000E+000   0.35471E-002   0.00000E+000   0.00000E+000   0.00000E+000   0.35471E-002
   0.44990E-002   0.00000E+000   0.00000E+000   0.00000E+000   0.44990E-002   0.00000E+000   0.00000E+000   0.00000E+000   0.44990E-002
   0.32544E-002   0.00000E+000   0.00000E+000   0.00000E+000   0.32544E-002   0.00000E+000   0.00000E+000   0.00000E+000   0.32544E-002
   0.41225E-002   0.00000E+000   0.00000E+000   0.00000E+000   0.41225E-002   0.00000E+000   0.00000E+000   0.00000E+000   0.41225E-002
   0.48517E-002   0.00000E+000   0.00000E+000   0.00000E+000   0.48517E-002   0.00000E+000   0.00000E+000   0.00000E+000   0.48517E-002
   0.46329E-002   0.00000E+000   0.00000E+000   0.00000E+000   0.46329E-002   0.00000E+000   0.00000E+000   0.00000E+000   0.46329E-002
   0.35771E-002   0.00000E+000   0.00000E+000   0.00000E+000   0.35771E-002   0.00000E+000   0.00000E+000   0.00000E+000   0.35771E-002
   0.39656E-002   0.00000E+000   0.00000E+000   0.00000E+000   0.39656E-002   0.00000E+000   0.00000E+000   0.00000E+000   0.39656E-002
   0.99890E-002   0.00000E+000   0.00000E+000   0.00000E+000   0.99890E-002   0.00000E+000   0.00000E+000   0.00000E+000   0.99890E-002
   0.93837E-002   0.00000E+000   0.00000E+000   0.00000E+000   0.93837E-002   0.00000E+000   0.00000E+000   0.00000E+000   0.93837E-002
   0.92998E-002   0.00000E+000   0.00000E+000   0.00000E+000   0.92998E-002   0.00000E+000   0.00000E+000   0.00000E+000   0.92998E-002
   0.99890E-002   0.00000E+000   0.00000E+000   0.00000E+000   0.99890E-002   0.00000E+000   0.00000E+000   0.00000E+000   0.99890E-002
   0.99890E-002   0.00000E+000   0.00000E+000   0.00000E+000   0.99890E-002   0.00000E+000   0.00000E+000   0.00000E+000   0.99890E-002
   0.99890E-002   0.00000E+000   0.00000E+000   0.00000E+000   0.99890E-002   0.00000E+000   0.00000E+000   0.00000E+000   0.99890E-002
   0.28738E-002   0.00000E+000   0.00000E+000   0.00000E+000   0.28738E-002   0.00000E+000   0.00000E+000   0.00000E+000   0.28738E-002
   0.29118E-002   0.00000E+000   0.00000E+000   0.00000E+000   0.29118E-002   0.00000E+000   0.00000E+000   0.00000E+000   0.29118E-002
   0.38997E-002   0.00000E+000   0.00000E+000   0.00000E+000   0.38997E-002   0.00000E+000   0.00000E+000   0.00000E+000   0.38997E-002
   0.34043E-002   0.00000E+000   0.00000E+000   0.00000E+000   0.34043E-002   0.00000E+000   0.00000E+000   0.00000E+000   0.34043E-002
   0.28668E-002   0.00000E+000   0.00000E+000   0.00000E+000   0.28668E-002   0.00000E+000   0.00000E+000   0.00000E+000   0.28668E-002
   0.42893E-002   0.00000E+000   0.00000E+000   0.00000E+000   0.42893E-002   0.00000E+000   0.00000E+000   0.00000E+000   0.42893E-002
   0.27729E-002   0.00000E+000   0.00000E+000   0.00000E+000   0.27729E-002   0.00000E+000   0.00000E+000   0.00000E+000   0.27729E-002
   0.28549E-002   0.00000E+000   0.00000E+000   0.00000E+000   0.28549E-002   0.00000E+000   0.00000E+000   0.00000E+000   0.28549E-002
   0.36340E-002   0.00000E+000   0.00000E+000   0.00000E+000   0.36340E-002   0.00000E+000   0.00000E+000   0.00000E+000   0.36340E-002
   0.14194E-002   0.00000E+000   0.00000E+000   0.00000E+000   0.14194E-002   0.00000E+000   0.00000E+000   0.00000E+000   0.14194E-002
   0.12676E-002   0.00000E+000   0.00000E+000   0.00000E+000   0.12676E-002   0.00000E+000   0.00000E+000   0.00000E+000   0.12676E-002
   0.20158E-002   0.00000E+000   0.00000E+000   0.00000E+000   0.20158E-002   0.00000E+000   0.00000E+000   0.00000E+000   0.20158E-002
   0.19838E-002   0.00000E+000   0.00000E+000   0.00000E+000   0.19838E-002   0.00000E+000   0.00000E+000   0.00000E+000   0.19838E-002
   0.18020E-002   0.00000E+000   0.00000E+000   0.00000E+000   0.18020E-002   0.00000E+000   0.00000E+000   0.00000E+000   0.18020E-002
   0.22036E-002   0.00000E+000   0.00000E+000   0.00000E+000   0.22036E-002   0.00000E+000   0.00000E+000   0.00000E+000   0.22036E-002
   0.27230E-002   0.00000E+000   0.00000E+000   0.00000E+000   0.27230E-002   0.00000E+000   0.00000E+000   0.00000E+000   0.27230E-002
   0.13345E-002   0.00000E+000   0.00000E+000   0.00000E+000   0.13345E-002   0.00000E+000   0.00000E+000   0.00000E+000   0.13345E-002
   0.69523E-003   0.00000E+000   0.00000E+000   0.00000E+000   0.69523E-003   0.00000E+000   0.00000E+000   0.00000E+000   0.69523E-003
   0.38637E-002   0.00000E+000   0.00000E+000   0.00000E+000   0.38637E-002   0.00000E+000   0.00000E+000   0.00000E+000   0.38637E-002
   0.35291E-002   0.00000E+000   0.00000E+000   0.00000E+000   0.35291E-002   0.00000E+000   0.00000E+000   0.00000E+000   0.35291E-002
   0.49306E-002   0.00000E+000   0.00000E+000   0.00000E+000   0.49306E-002   0.00000E+000   0.00000E+000   0.00000E+000   0.49306E-002
   0.33054E-002   0.00000E+000   0.00000E+000   0.00000E+000   0.33054E-002   0.00000E+000   0.00000E+000   0.00000E+000   0.33054E-002
   0.41454E-002   0.00000E+000   0.00000E+000   0.00000E+000   0.41454E-002   0.00000E+000   0.00000E+000   0.00000E+000   0.41454E-002
   0.38228E-002   0.00000E+000   0.00000E+000   0.00000E+000   0.38228E-002   0.00000E+000   0.00000E+000   0.00000E+000   0.38228E-002
   0.34272E-002   0.00000E+000   0.00000E+000   0.00000E+000   0.34272E-002   0.00000E+000   0.00000E+000   0.00000E+000   0.34272E-002
   0.44012E-002   0.00000E+000   0.00000E+000   0.00000E+000   0.44012E-002   0.00000E+000   0.00000E+000   0.00000E+000   0.44012E-002
   0.49036E-002   0.00000E+000   0.00000E+000   0.00000E+000   0.49036E-002   0.00000E+000   0.00000E+000   0.00000E+000   0.49036E-002
   0.13325E-002   0.00000E+000   0.00000E+000   0.00000E+000   0.13325E-002   0.00000E+000   0.00000E+000   0.00000E+000   0.13325E-002
   0.19189E-002   0.00000E+000   0.00000E+000   0.00000E+000   0.19189E-002   0.00000E+000   0.00000E+000   0.00000E+000   0.19189E-002
   0.12806E-002   0.00000E+000   0.00000E+000   0.00000E+000   0.12806E-002   0.00000E+000   0.00000E+000   0.00000E+000   0.12806E-002
   0.86904E-003   0.00000E+000   0.00000E+000   0.00000E+000   0.86904E-003   0.00000E+000   0.00000E+000   0.00000E+000   0.86904E-003
   0.21027E-002   0.00000E+000   0.00000E+000   0.00000E+000   0.21027E-002   0.00000E+000   0.00000E+000   0.00000E+000   0.21027E-002
   0.63530E-003   0.00000E+000   0.00000E+000   0.00000E+000   0.63530E-003   0.00000E+000   0.00000E+000   0.00000E+000   0.63530E-003
   0.63430E-003   0.00000E+000   0.00000E+000   0.00000E+000   0.63430E-003   0.00000E+000   0.00000E+000   0.00000E+000   0.63430E-003
   0.16432E-002   0.00000E+000   0.00000E+000   0.00000E+000   0.16432E-002   0.00000E+000   0.00000E+000   0.00000E+000   0.16432E-002
   0.34372E-002   0.00000E+000   0.00000E+000   0.00000E+000   0.34372E-002   0.00000E+000   0.00000E+000   0.00000E+000   0.34372E-002
   0.29388E-002   0.00000E+000   0.00000E+000   0.00000E+000   0.29388E-002   0.00000E+000   0.00000E+000   0.00000E+000   0.29388E-002
   0.24953E-002   0.00000E+000   0.00000E+000   0.00000E+000   0.24953E-002   0.00000E+000   0.00000E+000   0.00000E+000   0.24953E-002
   0.44921E-002   0.00000E+000   0.00000E+000   0.00000E+000   0.44921E-002   0.00000E+000   0.00000E+000   0.00000E+000   0.44921E-002
   0.45650E-002   0.00000E+000   0.00000E+000   0.00000E+000   0.45650E-002   0.00000E+000   0.00000E+000   0.00000E+000   0.45650E-002
   0.45780E-002   0.00000E+000   0.00000E+000   0.00000E+000   0.45780E-002   0.00000E+000   0.00000E+000   0.00000E+000   0.45780E-002
   0.36480E-002   0.00000E+000   0.00000E+000   0.00000E+000   0.36480E-002   0.00000E+000   0.00000E+000   0.00000E+000   0.36480E-002
   0.26960E-002   0.00000E+000   0.00000E+000   0.00000E+000   0.26960E-002   0.00000E+000   0.00000E+000   0.00000E+000   0.26960E-002
   0.11318E-002   0.00000E+000   0.00000E+000   0.00000E+000   0.11318E-002   0.00000E+000   0.00000E+000   0.00000E+000   0.11318E-002
   0.00000E+000   0.00000E+000   0.00000E+000   0.00000E+000   0.00000E+000   0.00000E+000   0.00000E+000   0.00000E+000   0.00000E+000
   0.00000E+000   0.00000E+000   0.00000E+000   0.00000E+000   0.00000E+000   0.00000E+000   0.00000E+000   0.00000E+000   0.00000E+000
   0.80012E-003   0.00000E+000   0.00000E+000   0.00000E+000   0.80012E-003   0.00000E+000   0.00000E+000   0.00000E+000   0.80012E-003
   0.44032E-002   0.00000E+000   0.00000E+000   0.00000E+000   0.44032E-002   0.00000E+000   0.00000E+000   0.00000E+000   0.44032E-002
   0.45300E-002   0.00000E+000   0.00000E+000   0.00000E+000   0.45300E-002   0.00000E+000   0.00000E+000   0.00000E+000   0.45300E-002
   0.62032E-003   0.00000E+000   0.00000E+000   0.00000E+000   0.62032E-003   0.00000E+000   0.00000E+000   0.00000E+000   0.62032E-003
   0.00000E+000   0.00000E+000   0.00000E+000   0.00000E+000   0.00000E+000   0.00000E+000   0.00000E+000   0.00000E+000   0.00000E+000
   0.89601E-003   0.00000E+000   0.00000E+000   0.00000E+000   0.89601E-003   0.00000E+000   0.00000E+000   0.00000E+000   0.89601E-003
   0.00000E+000   0.00000E+000   0.00000E+000   0.00000E+000   0.00000E+000   0.00000E+000   0.00000E+000   0.00000E+000   0.00000E+000
   0.00000E+000   0.00000E+000   0.00000E+000   0.00000E+000   0.00000E+000   0.00000E+000   0.00000E+000   0.00000E+000   0.00000E+000
   0.10429E-002   0.00000E+000   0.00000E+000   0.00000E+000   0.10429E-002   0.00000E+000   0.00000E+000   0.00000E+000   0.10429E-002
   0.90001E-003   0.00000E+000   0.00000E+000   0.00000E+000   0.90001E-003   0.00000E+000   0.00000E+000   0.00000E+000   0.90001E-003
   0.18040E-002   0.00000E+000   0.00000E+000   0.00000E+000   0.18040E-002   0.00000E+000   0.00000E+000   0.00000E+000   0.18040E-002
   0.00000E+000   0.00000E+000   0.00000E+000   0.00000E+000   0.00000E+000   0.00000E+000   0.00000E+000   0.00000E+000   0.00000E+000
   0.49825E-002   0.00000E+000   0.00000E+000   0.00000E+000   0.49825E-002   0.00000E+000   0.00000E+000   0.00000E+000   0.49825E-002
   0.45020E-002   0.00000E+000   0.00000E+000   0.00000E+000   0.45020E-002   0.00000E+000   0.00000E+000   0.00000E+000   0.45020E-002
   0.54720E-002   0.00000E+000   0.00000E+000   0.00000E+000   0.54720E-002   0.00000E+000   0.00000E+000   0.00000E+000   0.54720E-002
   0.27240E-002   0.00000E+000   0.00000E+000   0.00000E+000   0.27240E-002   0.00000E+000   0.00000E+000   0.00000E+000   0.27240E-002
   0.27260E-002   0.00000E+000   0.00000E+000   0.00000E+000   0.27260E-002   0.00000E+000   0.00000E+000   0.00000E+000   0.27260E-002
   0.18080E-002   0.00000E+000   0.00000E+000   0.00000E+000   0.18080E-002   0.00000E+000   0.00000E+000   0.00000E+000   0.18080E-002
   0.72031E-002   0.00000E+000   0.00000E+000   0.00000E+000   0.72031E-002   0.00000E+000   0.00000E+000   0.00000E+000   0.72031E-002
   0.63490E-002   0.00000E+000   0.00000E+000   0.00000E+000   0.63490E-002   0.00000E+000   0.00000E+000   0.00000E+000   0.63490E-002
   0.63810E-002   0.00000E+000   0.00000E+000   0.00000E+000   0.63810E-002   0.00000E+000   0.00000E+000   0.00000E+000   0.63810E-002
   0.55829E-002   0.00000E+000   0.00000E+000   0.00000E+000   0.55829E-002   0.00000E+000   0.00000E+000   0.00000E+000   0.55829E-002
   0.56018E-002   0.00000E+000   0.00000E+000   0.00000E+000   0.56018E-002   0.00000E+000   0.00000E+000   0.00000E+000   0.56018E-002
   0.10019E-002   0.00000E+000   0.00000E+000   0.00000E+000   0.10019E-002   0.00000E+000   0.00000E+000   0.00000E+000   0.10019E-002
   0.87004E-003   0.00000E+000   0.00000E+000   0.00000E+000   0.87004E-003   0.00000E+000   0.00000E+000   0.00000E+000   0.87004E-003
   0.00000E+000   0.00000E+000   0.00000E+000   0.00000E+000   0.00000E+000   0.00000E+000   0.00000E+000   0.00000E+000   0.00000E+000
   0.00000E+000   0.00000E+000   0.00000E+000   0.00000E+000   0.00000E+000   0.00000E+000   0.00000E+000   0.00000E+000   0.00000E+000
   0.63081E-002   0.00000E+000   0.00000E+000   0.00000E+000   0.63081E-002   0.00000E+000   0.00000E+000   0.00000E+000   0.63081E-002
   0.60234E-003   0.00000E+000   0.00000E+000   0.00000E+000   0.60234E-003   0.00000E+000   0.00000E+000   0.00000E+000   0.60234E-003
   0.00000E+000   0.00000E+000   0.00000E+000   0.00000E+000   0.00000E+000   0.00000E+000   0.00000E+000   0.00000E+000   0.00000E+000
   0.89801E-003   0.00000E+000   0.00000E+000   0.00000E+000   0.89801E-003   0.00000E+000   0.00000E+000   0.00000E+000   0.89801E-003
   0.89801E-003   0.00000E+000   0.00000E+000   0.00000E+000   0.89801E-003   0.00000E+000   0.00000E+000   0.00000E+000   0.89801E-003
   0.00000E+000   0.00000E+000   0.00000E+000   0.00000E+000   0.00000E+000   0.00000E+000   0.00000E+000   0.00000E+000   0.00000E+000
   0.92049E-002   0.00000E+000   0.00000E+000   0.00000E+000   0.92049E-002   0.00000E+000   0.00000E+000   0.00000E+000   0.92049E-002
   0.93467E-002   0.00000E+000   0.00000E+000   0.00000E+000   0.93467E-002   0.00000E+000   0.00000E+000   0.00000E+000   0.93467E-002
   0.99890E-002   0.00000E+000   0.00000E+000   0.00000E+000   0.99890E-002   0.00000E+000   0.00000E+000   0.00000E+000   0.99890E-002
   0.87843E-002   0.00000E+000   0.00000E+000   0.00000E+000   0.87843E-002   0.00000E+000   0.00000E+000   0.00000E+000   0.87843E-002
   0.94026E-002   0.00000E+000   0.00000E+000   0.00000E+000   0.94026E-002   0.00000E+000   0.00000E+000   0.00000E+000   0.94026E-002
   0.82110E-002   0.00000E+000   0.00000E+000   0.00000E+000   0.82110E-002   0.00000E+000   0.00000E+000   0.00000E+000   0.82110E-002
   0.81970E-002   0.00000E+000   0.00000E+000   0.00000E+000   0.81970E-002   0.00000E+000   0.00000E+000   0.00000E+000   0.81970E-002
   0.75617E-003   0.00000E+000   0.00000E+000   0.00000E+000   0.75617E-003   0.00000E+000   0.00000E+000   0.00000E+000   0.75617E-003
   0.12127E-002   0.00000E+000   0.00000E+000   0.00000E+000   0.12127E-002   0.00000E+000   0.00000E+000   0.00000E+000   0.12127E-002
   0.18130E-002   0.00000E+000   0.00000E+000   0.00000E+000   0.18130E-002   0.00000E+000   0.00000E+000   0.00000E+000   0.18130E-002
   0.18390E-002   0.00000E+000   0.00000E+000   0.00000E+000   0.18390E-002   0.00000E+000   0.00000E+000   0.00000E+000   0.18390E-002
   0.92498E-003   0.00000E+000   0.00000E+000   0.00000E+000   0.92498E-003   0.00000E+000   0.00000E+000   0.00000E+000   0.92498E-003
   0.65528E-003   0.00000E+000   0.00000E+000   0.00000E+000   0.65528E-003   0.00000E+000   0.00000E+000   0.00000E+000   0.65528E-003
   0.58635E-003   0.00000E+000   0.00000E+000   0.00000E+000   0.58635E-003   0.00000E+000   0.00000E+000   0.00000E+000   0.58635E-003
   0.00000E+000   0.00000E+000   0.00000E+000   0.00000E+000   0.00000E+000   0.00000E+000   0.00000E+000   0.00000E+000   0.00000E+000
   0.00000E+000   0.00000E+000   0.00000E+000   0.00000E+000   0.00000E+000   0.00000E+000   0.00000E+000   0.00000E+000   0.00000E+000
   0.81111E-002   0.00000E+000   0.00000E+000   0.00000E+000   0.81111E-002   0.00000E+000   0.00000E+000   0.00000E+000   0.81111E-002
   0.87454E-002   0.00000E+000   0.00000E+000   0.00000E+000   0.87454E-002   0.00000E+000   0.00000E+000   0.00000E+000   0.87454E-002
   0.93587E-002   0.00000E+000   0.00000E+000   0.00000E+000   0.93587E-002   0.00000E+000   0.00000E+000   0.00000E+000   0.93587E-002
   0.44491E-002   0.00000E+000   0.00000E+000   0.00000E+000   0.44491E-002   0.00000E+000   0.00000E+000   0.00000E+000   0.44491E-002
   0.50025E-002   0.00000E+000   0.00000E+000   0.00000E+000   0.50025E-002   0.00000E+000   0.00000E+000   0.00000E+000   0.50025E-002
   0.55549E-002   0.00000E+000   0.00000E+000   0.00000E+000   0.55549E-002   0.00000E+000   0.00000E+000   0.00000E+000   0.55549E-002
   0.87064E-002   0.00000E+000   0.00000E+000   0.00000E+000   0.87064E-002   0.00000E+000   0.00000E+000   0.00000E+000   0.87064E-002
   0.93667E-002   0.00000E+000   0.00000E+000   0.00000E+000   0.93667E-002   0.00000E+000   0.00000E+000   0.00000E+000   0.93667E-002
   0.93127E-002   0.00000E+000   0.00000E+000   0.00000E+000   0.93127E-002   0.00000E+000   0.00000E+000   0.00000E+000   0.93127E-002
   0.44980E-002   0.00000E+000   0.00000E+000   0.00000E+000   0.44980E-002   0.00000E+000   0.00000E+000   0.00000E+000   0.44980E-002
   0.86505E-003   0.00000E+000   0.00000E+000   0.00000E+000   0.86505E-003   0.00000E+000   0.00000E+000   0.00000E+000   0.86505E-003
   0.17241E-002   0.00000E+000   0.00000E+000   0.00000E+000   0.17241E-002   0.00000E+000   0.00000E+000   0.00000E+000   0.17241E-002
   0.53481E-002   0.00000E+000   0.00000E+000   0.00000E+000   0.53481E-002   0.00000E+000   0.00000E+000   0.00000E+000   0.53481E-002
   0.55599E-002   0.00000E+000   0.00000E+000   0.00000E+000   0.55599E-002   0.00000E+000   0.00000E+000   0.00000E+000   0.55599E-002
   0.55679E-002   0.00000E+000   0.00000E+000   0.00000E+000   0.55679E-002   0.00000E+000   0.00000E+000   0.00000E+000   0.55679E-002
   0.46349E-002   0.00000E+000   0.00000E+000   0.00000E+000   0.46349E-002   0.00000E+000   0.00000E+000   0.00000E+000   0.46349E-002
   0.14364E-002   0.00000E+000   0.00000E+000   0.00000E+000   0.14364E-002   0.00000E+000   0.00000E+000   0.00000E+000   0.14364E-002
   0.17221E-002   0.00000E+000   0.00000E+000   0.00000E+000   0.17221E-002   0.00000E+000   0.00000E+000   0.00000E+000   0.17221E-002
   0.81280E-002   0.00000E+000   0.00000E+000   0.00000E+000   0.81280E-002   0.00000E+000   0.00000E+000   0.00000E+000   0.81280E-002
   0.77255E-002   0.00000E+000   0.00000E+000   0.00000E+000   0.77255E-002   0.00000E+000   0.00000E+000   0.00000E+000   0.77255E-002
   0.86505E-003   0.00000E+000   0.00000E+000   0.00000E+000   0.86505E-003   0.00000E+000   0.00000E+000   0.00000E+000   0.86505E-003
   0.54860E-002   0.00000E+000   0.00000E+000   0.00000E+000   0.54860E-002   0.00000E+000   0.00000E+000   0.00000E+000   0.54860E-002
   0.58286E-002   0.00000E+000   0.00000E+000   0.00000E+000   0.58286E-002   0.00000E+000   0.00000E+000   0.00000E+000   0.58286E-002
   0.55339E-003   0.00000E+000   0.00000E+000   0.00000E+000   0.55339E-003   0.00000E+000   0.00000E+000   0.00000E+000   0.55339E-003
   0.14764E-002   0.00000E+000   0.00000E+000   0.00000E+000   0.14764E-002   0.00000E+000   0.00000E+000   0.00000E+000   0.14764E-002
   0.94796E-003   0.00000E+000   0.00000E+000   0.00000E+000   0.94796E-003   0.00000E+000   0.00000E+000   0.00000E+000   0.94796E-003
   0.55419E-002   0.00000E+000   0.00000E+000   0.00000E+000   0.55419E-002   0.00000E+000   0.00000E+000   0.00000E+000   0.55419E-002
   0.64389E-002   0.00000E+000   0.00000E+000   0.00000E+000   0.64389E-002   0.00000E+000   0.00000E+000   0.00000E+000   0.64389E-002
   0.64689E-002   0.00000E+000   0.00000E+000   0.00000E+000   0.64689E-002   0.00000E+000   0.00000E+000   0.00000E+000   0.64689E-002
   0.80751E-002   0.00000E+000   0.00000E+000   0.00000E+000   0.80751E-002   0.00000E+000   0.00000E+000   0.00000E+000   0.80751E-002
   0.73379E-002   0.00000E+000   0.00000E+000   0.00000E+000   0.73379E-002   0.00000E+000   0.00000E+000   0.00000E+000   0.73379E-002
   0.91240E-002   0.00000E+000   0.00000E+000   0.00000E+000   0.91240E-002   0.00000E+000   0.00000E+000   0.00000E+000   0.91240E-002
   0.75567E-002   0.00000E+000   0.00000E+000   0.00000E+000   0.75567E-002   0.00000E+000   0.00000E+000   0.00000E+000   0.75567E-002
   0.74508E-002   0.00000E+000   0.00000E+000   0.00000E+000   0.74508E-002   0.00000E+000   0.00000E+000   0.00000E+000   0.74508E-002
   0.70962E-002   0.00000E+000   0.00000E+000   0.00000E+000   0.70962E-002   0.00000E+000   0.00000E+000   0.00000E+000   0.70962E-002
   0.65158E-002   0.00000E+000   0.00000E+000   0.00000E+000   0.65158E-002   0.00000E+000   0.00000E+000   0.00000E+000   0.65158E-002
   0.72950E-002   0.00000E+000   0.00000E+000   0.00000E+000   0.72950E-002   0.00000E+000   0.00000E+000   0.00000E+000   0.72950E-002
   0.80352E-002   0.00000E+000   0.00000E+000   0.00000E+000   0.80352E-002   0.00000E+000   0.00000E+000   0.00000E+000   0.80352E-002
   0.80222E-002   0.00000E+000   0.00000E+000   0.00000E+000   0.80222E-002   0.00000E+000   0.00000E+000   0.00000E+000   0.80222E-002
   0.74328E-002   0.00000E+000   0.00000E+000   0.00000E+000   0.74328E-002   0.00000E+000   0.00000E+000   0.00000E+000   0.74328E-002
   0.55509E-002   0.00000E+000   0.00000E+000   0.00000E+000   0.55509E-002   0.00000E+000   0.00000E+000   0.00000E+000   0.55509E-002
   0.58176E-002   0.00000E+000   0.00000E+000   0.00000E+000   0.58176E-002   0.00000E+000   0.00000E+000   0.00000E+000   0.58176E-002
   0.44451E-002   0.00000E+000   0.00000E+000   0.00000E+000   0.44451E-002   0.00000E+000   0.00000E+000   0.00000E+000   0.44451E-002
   0.41674E-002   0.00000E+000   0.00000E+000   0.00000E+000   0.41674E-002   0.00000E+000   0.00000E+000   0.00000E+000   0.41674E-002
   0.50574E-002   0.00000E+000   0.00000E+000   0.00000E+000   0.50574E-002   0.00000E+000   0.00000E+000   0.00000E+000   0.50574E-002
   0.59574E-002   0.00000E+000   0.00000E+000   0.00000E+000   0.59574E-002   0.00000E+000   0.00000E+000   0.00000E+000   0.59574E-002
   0.64129E-002   0.00000E+000   0.00000E+000   0.00000E+000   0.64129E-002   0.00000E+000   0.00000E+000   0.00000E+000   0.64129E-002
   0.55509E-002   0.00000E+000   0.00000E+000   0.00000E+000   0.55509E-002   0.00000E+000   0.00000E+000   0.00000E+000   0.55509E-002
   0.62781E-002   0.00000E+000   0.00000E+000   0.00000E+000   0.62781E-002   0.00000E+000   0.00000E+000   0.00000E+000   0.62781E-002
   0.74168E-002   0.00000E+000   0.00000E+000   0.00000E+000   0.74168E-002   0.00000E+000   0.00000E+000   0.00000E+000   0.74168E-002
   0.80441E-002   0.00000E+000   0.00000E+000   0.00000E+000   0.80441E-002   0.00000E+000   0.00000E+000   0.00000E+000   0.80441E-002
   0.72280E-002   0.00000E+000   0.00000E+000   0.00000E+000   0.72280E-002   0.00000E+000   0.00000E+000   0.00000E+000   0.72280E-002
   0.89152E-002   0.00000E+000   0.00000E+000   0.00000E+000   0.89152E-002   0.00000E+000   0.00000E+000   0.00000E+000   0.89152E-002
   0.87923E-002   0.00000E+000   0.00000E+000   0.00000E+000   0.87923E-002   0.00000E+000   0.00000E+000   0.00000E+000   0.87923E-002
   0.84617E-002   0.00000E+000   0.00000E+000   0.00000E+000   0.84617E-002   0.00000E+000   0.00000E+000   0.00000E+000   0.84617E-002
   0.94016E-002   0.00000E+000   0.00000E+000   0.00000E+000   0.94016E-002   0.00000E+000   0.00000E+000   0.00000E+000   0.94016E-002
   0.63880E-002   0.00000E+000   0.00000E+000   0.00000E+000   0.63880E-002   0.00000E+000   0.00000E+000   0.00000E+000   0.63880E-002
   0.61692E-002   0.00000E+000   0.00000E+000   0.00000E+000   0.61692E-002   0.00000E+000   0.00000E+000   0.00000E+000   0.61692E-002
   0.62731E-002   0.00000E+000   0.00000E+000   0.00000E+000   0.62731E-002   0.00000E+000   0.00000E+000   0.00000E+000   0.62731E-002
   0.63780E-002   0.00000E+000   0.00000E+000   0.00000E+000   0.63780E-002   0.00000E+000   0.00000E+000   0.00000E+000   0.63780E-002
   0.63940E-002   0.00000E+000   0.00000E+000   0.00000E+000   0.63940E-002   0.00000E+000   0.00000E+000   0.00000E+000   0.63940E-002
   0.54730E-002   0.00000E+000   0.00000E+000   0.00000E+000   0.54730E-002   0.00000E+000   0.00000E+000   0.00000E+000   0.54730E-002
   0.45500E-002   0.00000E+000   0.00000E+000   0.00000E+000   0.45500E-002   0.00000E+000   0.00000E+000   0.00000E+000   0.45500E-002
   0.45550E-002   0.00000E+000   0.00000E+000   0.00000E+000   0.45550E-002   0.00000E+000   0.00000E+000   0.00000E+000   0.45550E-002
   0.36550E-002   0.00000E+000   0.00000E+000   0.00000E+000   0.36550E-002   0.00000E+000   0.00000E+000   0.00000E+000   0.36550E-002
   0.27320E-002   0.00000E+000   0.00000E+000   0.00000E+000   0.27320E-002   0.00000E+000   0.00000E+000   0.00000E+000   0.27320E-002
   0.27250E-002   0.00000E+000   0.00000E+000   0.00000E+000   0.27250E-002   0.00000E+000   0.00000E+000   0.00000E+000   0.27250E-002
   0.37948E-002   0.00000E+000   0.00000E+000   0.00000E+000   0.37948E-002   0.00000E+000   0.00000E+000   0.00000E+000   0.37948E-002
   0.32964E-002   0.00000E+000   0.00000E+000   0.00000E+000   0.32964E-002   0.00000E+000   0.00000E+000   0.00000E+000   0.32964E-002
   0.26451E-002   0.00000E+000   0.00000E+000   0.00000E+000   0.26451E-002   0.00000E+000   0.00000E+000   0.00000E+000   0.26451E-002
   0.58036E-003   0.00000E+000   0.00000E+000   0.00000E+000   0.58036E-003   0.00000E+000   0.00000E+000   0.00000E+000   0.58036E-003
   0.00000E+000   0.00000E+000   0.00000E+000   0.00000E+000   0.00000E+000   0.00000E+000   0.00000E+000   0.00000E+000   0.00000E+000
   0.00000E+000   0.00000E+000   0.00000E+000   0.00000E+000   0.00000E+000   0.00000E+000   0.00000E+000   0.00000E+000   0.00000E+000
   0.00000E+000   0.00000E+000   0.00000E+000   0.00000E+000   0.00000E+000   0.00000E+000   0.00000E+000   0.00000E+000   0.00000E+000
   0.28319E-002   0.00000E+000   0.00000E+000   0.00000E+000   0.28319E-002   0.00000E+000   0.00000E+000   0.00000E+000   0.28319E-002
   0.18939E-002   0.00000E+000   0.00000E+000   0.00000E+000   0.18939E-002   0.00000E+000   0.00000E+000   0.00000E+000   0.18939E-002
   0.85006E-003   0.00000E+000   0.00000E+000   0.00000E+000   0.85006E-003   0.00000E+000   0.00000E+000   0.00000E+000   0.85006E-003
   0.89801E-003   0.00000E+000   0.00000E+000   0.00000E+000   0.89801E-003   0.00000E+000   0.00000E+000   0.00000E+000   0.89801E-003
   0.59435E-003   0.00000E+000   0.00000E+000   0.00000E+000   0.59435E-003   0.00000E+000   0.00000E+000   0.00000E+000   0.59435E-003
   0.00000E+000   0.00000E+000   0.00000E+000   0.00000E+000   0.00000E+000   0.00000E+000   0.00000E+000   0.00000E+000   0.00000E+000
   0.62331E-003   0.00000E+000   0.00000E+000   0.00000E+000   0.62331E-003   0.00000E+000   0.00000E+000   0.00000E+000   0.62331E-003
   0.11357E-002   0.00000E+000   0.00000E+000   0.00000E+000   0.11357E-002   0.00000E+000   0.00000E+000   0.00000E+000   0.11357E-002
   0.18210E-002   0.00000E+000   0.00000E+000   0.00000E+000   0.18210E-002   0.00000E+000   0.00000E+000   0.00000E+000   0.18210E-002
   0.73849E-002   0.00000E+000   0.00000E+000   0.00000E+000   0.73849E-002   0.00000E+000   0.00000E+000   0.00000E+000   0.73849E-002
   0.68704E-002   0.00000E+000   0.00000E+000   0.00000E+000   0.68704E-002   0.00000E+000   0.00000E+000   0.00000E+000   0.68704E-002
   0.46549E-002   0.00000E+000   0.00000E+000   0.00000E+000   0.46549E-002   0.00000E+000   0.00000E+000   0.00000E+000   0.46549E-002
   0.36919E-002   0.00000E+000   0.00000E+000   0.00000E+000   0.36919E-002   0.00000E+000   0.00000E+000   0.00000E+000   0.36919E-002
   0.46089E-002   0.00000E+000   0.00000E+000   0.00000E+000   0.46089E-002   0.00000E+000   0.00000E+000   0.00000E+000   0.46089E-002
   0.73829E-002   0.00000E+000   0.00000E+000   0.00000E+000   0.73829E-002   0.00000E+000   0.00000E+000   0.00000E+000   0.73829E-002
   0.19219E-002   0.00000E+000   0.00000E+000   0.00000E+000   0.19219E-002   0.00000E+000   0.00000E+000   0.00000E+000   0.19219E-002
   0.87554E-002   0.00000E+000   0.00000E+000   0.00000E+000   0.87554E-002   0.00000E+000   0.00000E+000   0.00000E+000   0.87554E-002
   0.99890E-002   0.00000E+000   0.00000E+000   0.00000E+000   0.99890E-002   0.00000E+000   0.00000E+000   0.00000E+000   0.99890E-002
   0.91160E-002   0.00000E+000   0.00000E+000   0.00000E+000   0.91160E-002   0.00000E+000   0.00000E+000   0.00000E+000   0.91160E-002
   0.99890E-002   0.00000E+000   0.00000E+000   0.00000E+000   0.99890E-002   0.00000E+000   0.00000E+000   0.00000E+000   0.99890E-002
   0.36510E-002   0.00000E+000   0.00000E+000   0.00000E+000   0.36510E-002   0.00000E+000   0.00000E+000   0.00000E+000   0.36510E-002
   0.45899E-002   0.00000E+000   0.00000E+000   0.00000E+000   0.45899E-002   0.00000E+000   0.00000E+000   0.00000E+000   0.45899E-002
   0.91879E-002   0.00000E+000   0.00000E+000   0.00000E+000   0.91879E-002   0.00000E+000   0.00000E+000   0.00000E+000   0.91879E-002
   0.99890E-002   0.00000E+000   0.00000E+000   0.00000E+000   0.99890E-002   0.00000E+000   0.00000E+000   0.00000E+000   0.99890E-002
   0.99890E-002   0.00000E+000   0.00000E+000   0.00000E+000   0.99890E-002   0.00000E+000   0.00000E+000   0.00000E+000   0.99890E-002
   0.99890E-002   0.00000E+000   0.00000E+000   0.00000E+000   0.99890E-002   0.00000E+000   0.00000E+000   0.00000E+000   0.99890E-002
   0.22016E-002   0.00000E+000   0.00000E+000   0.00000E+000   0.22016E-002   0.00000E+000   0.00000E+000   0.00000E+000   0.22016E-002
   0.19209E-002   0.00000E+000   0.00000E+000   0.00000E+000   0.19209E-002   0.00000E+000   0.00000E+000   0.00000E+000   0.19209E-002
   0.18230E-002   0.00000E+000   0.00000E+000   0.00000E+000   0.18230E-002   0.00000E+000   0.00000E+000   0.00000E+000   0.18230E-002
   0.91200E-002   0.00000E+000   0.00000E+000   0.00000E+000   0.91200E-002   0.00000E+000   0.00000E+000   0.00000E+000   0.91200E-002
   0.99890E-002   0.00000E+000   0.00000E+000   0.00000E+000   0.99890E-002   0.00000E+000   0.00000E+000   0.00000E+000   0.99890E-002
   0.99890E-002   0.00000E+000   0.00000E+000   0.00000E+000   0.99890E-002   0.00000E+000   0.00000E+000   0.00000E+000   0.99890E-002
   0.99890E-002   0.00000E+000   0.00000E+000   0.00000E+000   0.99890E-002   0.00000E+000   0.00000E+000   0.00000E+000   0.99890E-002
   0.66157E-002   0.00000E+000   0.00000E+000   0.00000E+000   0.66157E-002   0.00000E+000   0.00000E+000   0.00000E+000   0.66157E-002
   0.18020E-002   0.00000E+000   0.00000E+000   0.00000E+000   0.18020E-002   0.00000E+000   0.00000E+000   0.00000E+000   0.18020E-002
   0.86914E-002   0.00000E+000   0.00000E+000   0.00000E+000   0.86914E-002   0.00000E+000   0.00000E+000   0.00000E+000   0.86914E-002
   0.80262E-002   0.00000E+000   0.00000E+000   0.00000E+000   0.80262E-002   0.00000E+000   0.00000E+000   0.00000E+000   0.80262E-002
   0.73519E-002   0.00000E+000   0.00000E+000   0.00000E+000   0.73519E-002   0.00000E+000   0.00000E+000   0.00000E+000   0.73519E-002
   0.60214E-002   0.00000E+000   0.00000E+000   0.00000E+000   0.60214E-002   0.00000E+000   0.00000E+000   0.00000E+000   0.60214E-002
   0.65498E-002   0.00000E+000   0.00000E+000   0.00000E+000   0.65498E-002   0.00000E+000   0.00000E+000   0.00000E+000   0.65498E-002
   0.80302E-002   0.00000E+000   0.00000E+000   0.00000E+000   0.80302E-002   0.00000E+000   0.00000E+000   0.00000E+000   0.80302E-002
   0.87384E-002   0.00000E+000   0.00000E+000   0.00000E+000   0.87384E-002   0.00000E+000   0.00000E+000   0.00000E+000   0.87384E-002
   0.73559E-002   0.00000E+000   0.00000E+000   0.00000E+000   0.73559E-002   0.00000E+000   0.00000E+000   0.00000E+000   0.73559E-002
   0.94136E-002   0.00000E+000   0.00000E+000   0.00000E+000   0.94136E-002   0.00000E+000   0.00000E+000   0.00000E+000   0.94136E-002
   0.91210E-002   0.00000E+000   0.00000E+000   0.00000E+000   0.91210E-002   0.00000E+000   0.00000E+000   0.00000E+000   0.91210E-002
   0.99890E-002   0.00000E+000   0.00000E+000   0.00000E+000   0.99890E-002   0.00000E+000   0.00000E+000   0.00000E+000   0.99890E-002
   0.99890E-002   0.00000E+000   0.00000E+000   0.00000E+000   0.99890E-002   0.00000E+000   0.00000E+000   0.00000E+000   0.99890E-002
   0.91170E-002   0.00000E+000   0.00000E+000   0.00000E+000   0.91170E-002   0.00000E+000   0.00000E+000   0.00000E+000   0.91170E-002
   0.94256E-002   0.00000E+000   0.00000E+000   0.00000E+000   0.94256E-002   0.00000E+000   0.00000E+000   0.00000E+000   0.94256E-002
   0.99890E-002   0.00000E+000   0.00000E+000   0.00000E+000   0.99890E-002   0.00000E+000   0.00000E+000   0.00000E+000   0.99890E-002
   0.91210E-002   0.00000E+000   0.00000E+000   0.00000E+000   0.91210E-002   0.00000E+000   0.00000E+000   0.00000E+000   0.91210E-002
   0.36490E-002   0.00000E+000   0.00000E+000   0.00000E+000   0.36490E-002   0.00000E+000   0.00000E+000   0.00000E+000   0.36490E-002
   0.27230E-002   0.00000E+000   0.00000E+000   0.00000E+000   0.27230E-002   0.00000E+000   0.00000E+000   0.00000E+000   0.27230E-002
   0.27220E-002   0.00000E+000   0.00000E+000   0.00000E+000   0.27220E-002   0.00000E+000   0.00000E+000   0.00000E+000   0.27220E-002
   0.27829E-002   0.00000E+000   0.00000E+000   0.00000E+000   0.27829E-002   0.00000E+000   0.00000E+000   0.00000E+000   0.27829E-002
   0.26201E-002   0.00000E+000   0.00000E+000   0.00000E+000   0.26201E-002   0.00000E+000   0.00000E+000   0.00000E+000   0.26201E-002
   0.20268E-002   0.00000E+000   0.00000E+000   0.00000E+000   0.20268E-002   0.00000E+000   0.00000E+000   0.00000E+000   0.20268E-002
   0.92298E-003   0.00000E+000   0.00000E+000   0.00000E+000   0.92298E-003   0.00000E+000   0.00000E+000   0.00000E+000   0.92298E-003
   0.36500E-002   0.00000E+000   0.00000E+000   0.00000E+000   0.36500E-002   0.00000E+000   0.00000E+000   0.00000E+000   0.36500E-002
   0.45850E-002   0.00000E+000   0.00000E+000   0.00000E+000   0.45850E-002   0.00000E+000   0.00000E+000   0.00000E+000   0.45850E-002
   0.45889E-002   0.00000E+000   0.00000E+000   0.00000E+000   0.45889E-002   0.00000E+000   0.00000E+000   0.00000E+000   0.45889E-002
   0.99890E-003   0.00000E+000   0.00000E+000   0.00000E+000   0.99890E-003   0.00000E+000   0.00000E+000   0.00000E+000   0.99890E-003
   0.26511E-002   0.00000E+000   0.00000E+000   0.00000E+000   0.26511E-002   0.00000E+000   0.00000E+000   0.00000E+000   0.26511E-002
   0.65118E-002   0.00000E+000   0.00000E+000   0.00000E+000   0.65118E-002   0.00000E+000   0.00000E+000   0.00000E+000   0.65118E-002
   0.53921E-002   0.00000E+000   0.00000E+000   0.00000E+000   0.53921E-002   0.00000E+000   0.00000E+000   0.00000E+000   0.53921E-002
   0.27250E-002   0.00000E+000   0.00000E+000   0.00000E+000   0.27250E-002   0.00000E+000   0.00000E+000   0.00000E+000   0.27250E-002
   0.79902E-002   0.00000E+000   0.00000E+000   0.00000E+000   0.79902E-002   0.00000E+000   0.00000E+000   0.00000E+000   0.79902E-002
   0.75297E-002   0.00000E+000   0.00000E+000   0.00000E+000   0.75297E-002   0.00000E+000   0.00000E+000   0.00000E+000   0.75297E-002
   0.85286E-002   0.00000E+000   0.00000E+000   0.00000E+000   0.85286E-002   0.00000E+000   0.00000E+000   0.00000E+000   0.85286E-002
   0.85066E-002   0.00000E+000   0.00000E+000   0.00000E+000   0.85066E-002   0.00000E+000   0.00000E+000   0.00000E+000   0.85066E-002
   0.81610E-002   0.00000E+000   0.00000E+000   0.00000E+000   0.81610E-002   0.00000E+000   0.00000E+000   0.00000E+000   0.81610E-002
   0.55099E-002   0.00000E+000   0.00000E+000   0.00000E+000   0.55099E-002   0.00000E+000   0.00000E+000   0.00000E+000   0.55099E-002
   0.81550E-002   0.00000E+000   0.00000E+000   0.00000E+000   0.81550E-002   0.00000E+000   0.00000E+000   0.00000E+000   0.81550E-002
   0.79912E-002   0.00000E+000   0.00000E+000   0.00000E+000   0.79912E-002   0.00000E+000   0.00000E+000   0.00000E+000   0.79912E-002
   0.80691E-002   0.00000E+000   0.00000E+000   0.00000E+000   0.80691E-002   0.00000E+000   0.00000E+000   0.00000E+000   0.80691E-002
   0.71771E-002   0.00000E+000   0.00000E+000   0.00000E+000   0.71771E-002   0.00000E+000   0.00000E+000   0.00000E+000   0.71771E-002
   0.86834E-002   0.00000E+000   0.00000E+000   0.00000E+000   0.86834E-002   0.00000E+000   0.00000E+000   0.00000E+000   0.86834E-002
   0.73209E-002   0.00000E+000   0.00000E+000   0.00000E+000   0.73209E-002   0.00000E+000   0.00000E+000   0.00000E+000   0.73209E-002
   0.25891E-002   0.00000E+000   0.00000E+000   0.00000E+000   0.25891E-002   0.00000E+000   0.00000E+000   0.00000E+000   0.25891E-002
   0.29078E-002   0.00000E+000   0.00000E+000   0.00000E+000   0.29078E-002   0.00000E+000   0.00000E+000   0.00000E+000   0.29078E-002
   0.93577E-002   0.00000E+000   0.00000E+000   0.00000E+000   0.93577E-002   0.00000E+000   0.00000E+000   0.00000E+000   0.93577E-002
   0.93167E-002   0.00000E+000   0.00000E+000   0.00000E+000   0.93167E-002   0.00000E+000   0.00000E+000   0.00000E+000   0.93167E-002
   0.74208E-002   0.00000E+000   0.00000E+000   0.00000E+000   0.74208E-002   0.00000E+000   0.00000E+000   0.00000E+000   0.74208E-002
   0.74987E-002   0.00000E+000   0.00000E+000   0.00000E+000   0.74987E-002   0.00000E+000   0.00000E+000   0.00000E+000   0.74987E-002
   0.93437E-002   0.00000E+000   0.00000E+000   0.00000E+000   0.93437E-002   0.00000E+000   0.00000E+000   0.00000E+000   0.93437E-002
   0.91250E-002   0.00000E+000   0.00000E+000   0.00000E+000   0.91250E-002   0.00000E+000   0.00000E+000   0.00000E+000   0.91250E-002
   0.91240E-002   0.00000E+000   0.00000E+000   0.00000E+000   0.91240E-002   0.00000E+000   0.00000E+000   0.00000E+000   0.91240E-002
   0.82649E-002   0.00000E+000   0.00000E+000   0.00000E+000   0.82649E-002   0.00000E+000   0.00000E+000   0.00000E+000   0.82649E-002
   0.92458E-002   0.00000E+000   0.00000E+000   0.00000E+000   0.92458E-002   0.00000E+000   0.00000E+000   0.00000E+000   0.92458E-002
   0.86405E-002   0.00000E+000   0.00000E+000   0.00000E+000   0.86405E-002   0.00000E+000   0.00000E+000   0.00000E+000   0.86405E-002
   0.45939E-002   0.00000E+000   0.00000E+000   0.00000E+000   0.45939E-002   0.00000E+000   0.00000E+000   0.00000E+000   0.45939E-002
   0.54949E-002   0.00000E+000   0.00000E+000   0.00000E+000   0.54949E-002   0.00000E+000   0.00000E+000   0.00000E+000   0.54949E-002
   0.52252E-002   0.00000E+000   0.00000E+000   0.00000E+000   0.52252E-002   0.00000E+000   0.00000E+000   0.00000E+000   0.52252E-002
   0.54620E-002   0.00000E+000   0.00000E+000   0.00000E+000   0.54620E-002   0.00000E+000   0.00000E+000   0.00000E+000   0.54620E-002
   0.44811E-002   0.00000E+000   0.00000E+000   0.00000E+000   0.44811E-002   0.00000E+000   0.00000E+000   0.00000E+000   0.44811E-002
   0.68425E-003   0.00000E+000   0.00000E+000   0.00000E+000   0.68425E-003   0.00000E+000   0.00000E+000   0.00000E+000   0.68425E-003
   0.87494E-002   0.00000E+000   0.00000E+000   0.00000E+000   0.87494E-002   0.00000E+000   0.00000E+000   0.00000E+000   0.87494E-002
   0.80272E-002   0.00000E+000   0.00000E+000   0.00000E+000   0.80272E-002   0.00000E+000   0.00000E+000   0.00000E+000   0.80272E-002
   0.82409E-002   0.00000E+000   0.00000E+000   0.00000E+000   0.82409E-002   0.00000E+000   0.00000E+000   0.00000E+000   0.82409E-002
   0.86924E-002   0.00000E+000   0.00000E+000   0.00000E+000   0.86924E-002   0.00000E+000   0.00000E+000   0.00000E+000   0.86924E-002
   0.82399E-002   0.00000E+000   0.00000E+000   0.00000E+000   0.82399E-002   0.00000E+000   0.00000E+000   0.00000E+000   0.82399E-002
   0.79892E-002   0.00000E+000   0.00000E+000   0.00000E+000   0.79892E-002   0.00000E+000   0.00000E+000   0.00000E+000   0.79892E-002
   0.88323E-002   0.00000E+000   0.00000E+000   0.00000E+000   0.88323E-002   0.00000E+000   0.00000E+000   0.00000E+000   0.88323E-002
   0.36660E-002   0.00000E+000   0.00000E+000   0.00000E+000   0.36660E-002   0.00000E+000   0.00000E+000   0.00000E+000   0.36660E-002
   0.87024E-002   0.00000E+000   0.00000E+000   0.00000E+000   0.87024E-002   0.00000E+000   0.00000E+000   0.00000E+000   0.87024E-002
   0.73459E-002   0.00000E+000   0.00000E+000   0.00000E+000   0.73459E-002   0.00000E+000   0.00000E+000   0.00000E+000   0.73459E-002
   0.62911E-002   0.00000E+000   0.00000E+000   0.00000E+000   0.62911E-002   0.00000E+000   0.00000E+000   0.00000E+000   0.62911E-002
   0.54920E-002   0.00000E+000   0.00000E+000   0.00000E+000   0.54920E-002   0.00000E+000   0.00000E+000   0.00000E+000   0.54920E-002
   0.61003E-002   0.00000E+000   0.00000E+000   0.00000E+000   0.61003E-002   0.00000E+000   0.00000E+000   0.00000E+000   0.61003E-002
   0.53851E-002   0.00000E+000   0.00000E+000   0.00000E+000   0.53851E-002   0.00000E+000   0.00000E+000   0.00000E+000   0.53851E-002
   0.59994E-002   0.00000E+000   0.00000E+000   0.00000E+000   0.59994E-002   0.00000E+000   0.00000E+000   0.00000E+000   0.59994E-002
   0.44841E-002   0.00000E+000   0.00000E+000   0.00000E+000   0.44841E-002   0.00000E+000   0.00000E+000   0.00000E+000   0.44841E-002
   0.49296E-002   0.00000E+000   0.00000E+000   0.00000E+000   0.49296E-002   0.00000E+000   0.00000E+000   0.00000E+000   0.49296E-002
   0.94176E-002   0.00000E+000   0.00000E+000   0.00000E+000   0.94176E-002   0.00000E+000   0.00000E+000   0.00000E+000   0.94176E-002
   0.12916E-002   0.00000E+000   0.00000E+000   0.00000E+000   0.12916E-002   0.00000E+000   0.00000E+000   0.00000E+000   0.12916E-002
   0.56028E-002   0.00000E+000   0.00000E+000   0.00000E+000   0.56028E-002   0.00000E+000   0.00000E+000   0.00000E+000   0.56028E-002
   0.49945E-002   0.00000E+000   0.00000E+000   0.00000E+000   0.49945E-002   0.00000E+000   0.00000E+000   0.00000E+000   0.49945E-002
   0.00000E+000   0.00000E+000   0.00000E+000   0.00000E+000   0.00000E+000   0.00000E+000   0.00000E+000   0.00000E+000   0.00000E+000
   0.28299E-002   0.00000E+000   0.00000E+000   0.00000E+000   0.28299E-002   0.00000E+000   0.00000E+000   0.00000E+000   0.28299E-002
   0.93667E-002   0.00000E+000   0.00000E+000   0.00000E+000   0.93667E-002   0.00000E+000   0.00000E+000   0.00000E+000   0.93667E-002
   0.99890E-002   0.00000E+000   0.00000E+000   0.00000E+000   0.99890E-002   0.00000E+000   0.00000E+000   0.00000E+000   0.99890E-002
   0.99890E-002   0.00000E+000   0.00000E+000   0.00000E+000   0.99890E-002   0.00000E+000   0.00000E+000   0.00000E+000   0.99890E-002
   0.10868E-002   0.00000E+000   0.00000E+000   0.00000E+000   0.10868E-002   0.00000E+000   0.00000E+000   0.00000E+000   0.10868E-002
   0.17431E-002   0.00000E+000   0.00000E+000   0.00000E+000   0.17431E-002   0.00000E+000   0.00000E+000   0.00000E+000   0.17431E-002
   0.18500E-002   0.00000E+000   0.00000E+000   0.00000E+000   0.18500E-002   0.00000E+000   0.00000E+000   0.00000E+000   0.18500E-002
   0.60334E-003   0.00000E+000   0.00000E+000   0.00000E+000   0.60334E-003   0.00000E+000   0.00000E+000   0.00000E+000   0.60334E-003
   0.65128E-003   0.00000E+000   0.00000E+000   0.00000E+000   0.65128E-003   0.00000E+000   0.00000E+000   0.00000E+000   0.65128E-003
   0.88233E-002   0.00000E+000   0.00000E+000   0.00000E+000   0.88233E-002   0.00000E+000   0.00000E+000   0.00000E+000   0.88233E-002
   0.99890E-002   0.00000E+000   0.00000E+000   0.00000E+000   0.99890E-002   0.00000E+000   0.00000E+000   0.00000E+000   0.99890E-002
   0.34492E-002   0.00000E+000   0.00000E+000   0.00000E+000   0.34492E-002   0.00000E+000   0.00000E+000   0.00000E+000   0.34492E-002
   0.34962E-002   0.00000E+000   0.00000E+000   0.00000E+000   0.34962E-002   0.00000E+000   0.00000E+000   0.00000E+000   0.34962E-002
   0.18050E-002   0.00000E+000   0.00000E+000   0.00000E+000   0.18050E-002   0.00000E+000   0.00000E+000   0.00000E+000   0.18050E-002
   0.91110E-002   0.00000E+000   0.00000E+000   0.00000E+000   0.91110E-002   0.00000E+000   0.00000E+000   0.00000E+000   0.91110E-002
   0.91809E-002   0.00000E+000   0.00000E+000   0.00000E+000   0.91809E-002   0.00000E+000   0.00000E+000   0.00000E+000   0.91809E-002
   0.69124E-003   0.00000E+000   0.00000E+000   0.00000E+000   0.69124E-003   0.00000E+000   0.00000E+000   0.00000E+000   0.69124E-003
   0.25911E-002   0.00000E+000   0.00000E+000   0.00000E+000   0.25911E-002   0.00000E+000   0.00000E+000   0.00000E+000   0.25911E-002
   0.94386E-002   0.00000E+000   0.00000E+000   0.00000E+000   0.94386E-002   0.00000E+000   0.00000E+000   0.00000E+000   0.94386E-002
   0.99890E-002   0.00000E+000   0.00000E+000   0.00000E+000   0.99890E-002   0.00000E+000   0.00000E+000   0.00000E+000   0.99890E-002
   0.99890E-002   0.00000E+000   0.00000E+000   0.00000E+000   0.99890E-002   0.00000E+000   0.00000E+000   0.00000E+000   0.99890E-002
   0.72181E-002   0.00000E+000   0.00000E+000   0.00000E+000   0.72181E-002   0.00000E+000   0.00000E+000   0.00000E+000   0.72181E-002
   0.69923E-002   0.00000E+000   0.00000E+000   0.00000E+000   0.69923E-002   0.00000E+000   0.00000E+000   0.00000E+000   0.69923E-002
   0.65018E-002   0.00000E+000   0.00000E+000   0.00000E+000   0.65018E-002   0.00000E+000   0.00000E+000   0.00000E+000   0.65018E-002
   0.70313E-002   0.00000E+000   0.00000E+000   0.00000E+000   0.70313E-002   0.00000E+000   0.00000E+000   0.00000E+000   0.70313E-002
   0.59624E-002   0.00000E+000   0.00000E+000   0.00000E+000   0.59624E-002   0.00000E+000   0.00000E+000   0.00000E+000   0.59624E-002
   0.54959E-002   0.00000E+000   0.00000E+000   0.00000E+000   0.54959E-002   0.00000E+000   0.00000E+000   0.00000E+000   0.54959E-002
   0.54080E-002   0.00000E+000   0.00000E+000   0.00000E+000   0.54080E-002   0.00000E+000   0.00000E+000   0.00000E+000   0.54080E-002
   0.66697E-002   0.00000E+000   0.00000E+000   0.00000E+000   0.66697E-002   0.00000E+000   0.00000E+000   0.00000E+000   0.66697E-002
   0.74028E-002   0.00000E+000   0.00000E+000   0.00000E+000   0.74028E-002   0.00000E+000   0.00000E+000   0.00000E+000   0.74028E-002
   0.53141E-002   0.00000E+000   0.00000E+000   0.00000E+000   0.53141E-002   0.00000E+000   0.00000E+000   0.00000E+000   0.53141E-002
   0.79313E-003   0.00000E+000   0.00000E+000   0.00000E+000   0.79313E-003   0.00000E+000   0.00000E+000   0.00000E+000   0.79313E-003
   0.11547E-002   0.00000E+000   0.00000E+000   0.00000E+000   0.11547E-002   0.00000E+000   0.00000E+000   0.00000E+000   0.11547E-002
   0.55099E-002   0.00000E+000   0.00000E+000   0.00000E+000   0.55099E-002   0.00000E+000   0.00000E+000   0.00000E+000   0.55099E-002
   0.99890E-002   0.00000E+000   0.00000E+000   0.00000E+000   0.99890E-002   0.00000E+000   0.00000E+000   0.00000E+000   0.99890E-002
   0.99890E-002   0.00000E+000   0.00000E+000   0.00000E+000   0.99890E-002   0.00000E+000   0.00000E+000   0.00000E+000   0.99890E-002
   0.63830E-003   0.00000E+000   0.00000E+000   0.00000E+000   0.63830E-003   0.00000E+000   0.00000E+000   0.00000E+000   0.63830E-003
   0.12137E-002   0.00000E+000   0.00000E+000   0.00000E+000   0.12137E-002   0.00000E+000   0.00000E+000   0.00000E+000   0.12137E-002
   0.88792E-002   0.00000E+000   0.00000E+000   0.00000E+000   0.88792E-002   0.00000E+000   0.00000E+000   0.00000E+000   0.88792E-002
   0.99890E-002   0.00000E+000   0.00000E+000   0.00000E+000   0.99890E-002   0.00000E+000   0.00000E+000   0.00000E+000   0.99890E-002
   0.80611E-002   0.00000E+000   0.00000E+000   0.00000E+000   0.80611E-002   0.00000E+000   0.00000E+000   0.00000E+000   0.80611E-002
   0.99890E-002   0.00000E+000   0.00000E+000   0.00000E+000   0.99890E-002   0.00000E+000   0.00000E+000   0.00000E+000   0.99890E-002
   0.81710E-002   0.00000E+000   0.00000E+000   0.00000E+000   0.81710E-002   0.00000E+000   0.00000E+000   0.00000E+000   0.81710E-002
   0.00000E+000   0.00000E+000   0.00000E+000   0.00000E+000   0.00000E+000   0.00000E+000   0.00000E+000   0.00000E+000   0.00000E+000
   0.00000E+000   0.00000E+000   0.00000E+000   0.00000E+000   0.00000E+000   0.00000E+000   0.00000E+000   0.00000E+000   0.00000E+000
   0.60793E-002   0.00000E+000   0.00000E+000   0.00000E+000   0.60793E-002   0.00000E+000   0.00000E+000   0.00000E+000   0.60793E-002
   0.99890E-002   0.00000E+000   0.00000E+000   0.00000E+000   0.99890E-002   0.00000E+000   0.00000E+000   0.00000E+000   0.99890E-002
   0.99890E-002   0.00000E+000   0.00000E+000   0.00000E+000   0.99890E-002   0.00000E+000   0.00000E+000   0.00000E+000   0.99890E-002
   0.93357E-002   0.00000E+000   0.00000E+000   0.00000E+000   0.93357E-002   0.00000E+000   0.00000E+000   0.00000E+000   0.93357E-002
   0.89901E-002   0.00000E+000   0.00000E+000   0.00000E+000   0.89901E-002   0.00000E+000   0.00000E+000   0.00000E+000   0.89901E-002
   0.27460E-002   0.00000E+000   0.00000E+000   0.00000E+000   0.27460E-002   0.00000E+000   0.00000E+000   0.00000E+000   0.27460E-002
   0.99890E-002   0.00000E+000   0.00000E+000   0.00000E+000   0.99890E-002   0.00000E+000   0.00000E+000   0.00000E+000   0.99890E-002
   0.99890E-002   0.00000E+000   0.00000E+000   0.00000E+000   0.99890E-002   0.00000E+000   0.00000E+000   0.00000E+000   0.99890E-002
   0.91200E-002   0.00000E+000   0.00000E+000   0.00000E+000   0.91200E-002   0.00000E+000   0.00000E+000   0.00000E+000   0.91200E-002
   0.00000E+000   0.00000E+000   0.00000E+000   0.00000E+000   0.00000E+000   0.00000E+000   0.00000E+000   0.00000E+000   0.00000E+000
   0.00000E+000   0.00000E+000   0.00000E+000   0.00000E+000   0.00000E+000   0.00000E+000   0.00000E+000   0.00000E+000   0.00000E+000
   0.00000E+000   0.00000E+000   0.00000E+000   0.00000E+000   0.00000E+000   0.00000E+000   0.00000E+000   0.00000E+000   0.00000E+000
   0.91190E-002   0.00000E+000   0.00000E+000   0.00000E+000   0.91190E-002   0.00000E+000   0.00000E+000   0.00000E+000   0.91190E-002
   0.87004E-003   0.00000E+000   0.00000E+000   0.00000E+000   0.87004E-003   0.00000E+000   0.00000E+000   0.00000E+000   0.87004E-003
   0.17291E-002   0.00000E+000   0.00000E+000   0.00000E+000   0.17291E-002   0.00000E+000   0.00000E+000   0.00000E+000   0.17291E-002
   0.87054E-002   0.00000E+000   0.00000E+000   0.00000E+000   0.87054E-002   0.00000E+000   0.00000E+000   0.00000E+000   0.87054E-002
   0.94076E-002   0.00000E+000   0.00000E+000   0.00000E+000   0.94076E-002   0.00000E+000   0.00000E+000   0.00000E+000   0.94076E-002
   0.82589E-002   0.00000E+000   0.00000E+000   0.00000E+000   0.82589E-002   0.00000E+000   0.00000E+000   0.00000E+000   0.82589E-002
   0.00000E+000   0.00000E+000   0.00000E+000   0.00000E+000   0.00000E+000   0.00000E+000   0.00000E+000   0.00000E+000   0.00000E+000
   0.00000E+000   0.00000E+000   0.00000E+000   0.00000E+000   0.00000E+000   0.00000E+000   0.00000E+000   0.00000E+000   0.00000E+000
   0.87803E-003   0.00000E+000   0.00000E+000   0.00000E+000   0.87803E-003   0.00000E+000   0.00000E+000   0.00000E+000   0.87803E-003
   0.61692E-002   0.00000E+000   0.00000E+000   0.00000E+000   0.61692E-002   0.00000E+000   0.00000E+000   0.00000E+000   0.61692E-002
   0.00000E+000   0.00000E+000   0.00000E+000   0.00000E+000   0.00000E+000   0.00000E+000   0.00000E+000   0.00000E+000   0.00000E+000
   0.00000E+000   0.00000E+000   0.00000E+000   0.00000E+000   0.00000E+000   0.00000E+000   0.00000E+000   0.00000E+000   0.00000E+000
   0.29577E-002   0.00000E+000   0.00000E+000   0.00000E+000   0.29577E-002   0.00000E+000   0.00000E+000   0.00000E+000   0.29577E-002
   0.24593E-002   0.00000E+000   0.00000E+000   0.00000E+000   0.24593E-002   0.00000E+000   0.00000E+000   0.00000E+000   0.24593E-002
   0.18340E-002   0.00000E+000   0.00000E+000   0.00000E+000   0.18340E-002   0.00000E+000   0.00000E+000   0.00000E+000   0.18340E-002
   0.19978E-002   0.00000E+000   0.00000E+000   0.00000E+000   0.19978E-002   0.00000E+000   0.00000E+000   0.00000E+000   0.19978E-002
   0.29967E-002   0.00000E+000   0.00000E+000   0.00000E+000   0.29967E-002   0.00000E+000   0.00000E+000   0.00000E+000   0.29967E-002
   0.00000E+000   0.00000E+000   0.00000E+000   0.00000E+000   0.00000E+000   0.00000E+000   0.00000E+000   0.00000E+000   0.00000E+000
   0.00000E+000   0.00000E+000   0.00000E+000   0.00000E+000   0.00000E+000   0.00000E+000   0.00000E+000   0.00000E+000   0.00000E+000
   0.00000E+000   0.00000E+000   0.00000E+000   0.00000E+000   0.00000E+000   0.00000E+000   0.00000E+000   0.00000E+000   0.00000E+000
   0.00000E+000   0.00000E+000   0.00000E+000   0.00000E+000   0.00000E+000   0.00000E+000   0.00000E+000   0.00000E+000   0.00000E+000
   0.54310E-002   0.00000E+000   0.00000E+000   0.00000E+000   0.54310E-002   0.00000E+000   0.00000E+000   0.00000E+000   0.54310E-002
   0.49945E-002   0.00000E+000   0.00000E+000   0.00000E+000   0.49945E-002   0.00000E+000   0.00000E+000   0.00000E+000   0.49945E-002
   0.39956E-002   0.00000E+000   0.00000E+000   0.00000E+000   0.39956E-002   0.00000E+000   0.00000E+000   0.00000E+000   0.39956E-002
   0.49595E-002   0.00000E+000   0.00000E+000   0.00000E+000   0.49595E-002   0.00000E+000   0.00000E+000   0.00000E+000   0.49595E-002
   0.54690E-002   0.00000E+000   0.00000E+000   0.00000E+000   0.54690E-002   0.00000E+000   0.00000E+000   0.00000E+000   0.54690E-002
   0.59934E-002   0.00000E+000   0.00000E+000   0.00000E+000   0.59934E-002   0.00000E+000   0.00000E+000   0.00000E+000   0.59934E-002
   0.55069E-002   0.00000E+000   0.00000E+000   0.00000E+000   0.55069E-002   0.00000E+000   0.00000E+000   0.00000E+000   0.55069E-002
   0.49945E-002   0.00000E+000   0.00000E+000   0.00000E+000   0.49945E-002   0.00000E+000   0.00000E+000   0.00000E+000   0.49945E-002
   0.44131E-002   0.00000E+000   0.00000E+000   0.00000E+000   0.44131E-002   0.00000E+000   0.00000E+000   0.00000E+000   0.44131E-002
   0.50025E-002   0.00000E+000   0.00000E+000   0.00000E+000   0.50025E-002   0.00000E+000   0.00000E+000   0.00000E+000   0.50025E-002
   0.44980E-002   0.00000E+000   0.00000E+000   0.00000E+000   0.44980E-002   0.00000E+000   0.00000E+000   0.00000E+000   0.44980E-002
   0.00000E+000   0.00000E+000   0.00000E+000   0.00000E+000   0.00000E+000   0.00000E+000   0.00000E+000   0.00000E+000   0.00000E+000
   0.94396E-003   0.00000E+000   0.00000E+000   0.00000E+000   0.94396E-003   0.00000E+000   0.00000E+000   0.00000E+000   0.94396E-003
   0.00000E+000   0.00000E+000   0.00000E+000   0.00000E+000   0.00000E+000   0.00000E+000   0.00000E+000   0.00000E+000   0.00000E+000
   0.99890E-003   0.00000E+000   0.00000E+000   0.00000E+000   0.99890E-003   0.00000E+000   0.00000E+000   0.00000E+000   0.99890E-003
   0.00000E+000   0.00000E+000   0.00000E+000   0.00000E+000   0.00000E+000   0.00000E+000   0.00000E+000   0.00000E+000   0.00000E+000
   0.00000E+000   0.00000E+000   0.00000E+000   0.00000E+000   0.00000E+000   0.00000E+000   0.00000E+000   0.00000E+000   0.00000E+000
   0.65028E-003   0.00000E+000   0.00000E+000   0.00000E+000   0.65028E-003   0.00000E+000   0.00000E+000   0.00000E+000   0.65028E-003
   0.24483E-002   0.00000E+000   0.00000E+000   0.00000E+000   0.24483E-002   0.00000E+000   0.00000E+000   0.00000E+000   0.24483E-002
   0.27480E-002   0.00000E+000   0.00000E+000   0.00000E+000   0.27480E-002   0.00000E+000   0.00000E+000   0.00000E+000   0.27480E-002
   0.27190E-002   0.00000E+000   0.00000E+000   0.00000E+000   0.27190E-002   0.00000E+000   0.00000E+000   0.00000E+000   0.27190E-002
   0.34732E-002   0.00000E+000   0.00000E+000   0.00000E+000   0.34732E-002   0.00000E+000   0.00000E+000   0.00000E+000   0.34732E-002
   0.29967E-002   0.00000E+000   0.00000E+000   0.00000E+000   0.29967E-002   0.00000E+000   0.00000E+000   0.00000E+000   0.29967E-002
   0.35341E-002   0.00000E+000   0.00000E+000   0.00000E+000   0.35341E-002   0.00000E+000   0.00000E+000   0.00000E+000   0.35341E-002
   0.74848E-002   0.00000E+000   0.00000E+000   0.00000E+000   0.74848E-002   0.00000E+000   0.00000E+000   0.00000E+000   0.74848E-002
   0.75657E-002   0.00000E+000   0.00000E+000   0.00000E+000   0.75657E-002   0.00000E+000   0.00000E+000   0.00000E+000   0.75657E-002
   0.86505E-002   0.00000E+000   0.00000E+000   0.00000E+000   0.86505E-002   0.00000E+000   0.00000E+000   0.00000E+000   0.86505E-002
   0.80731E-002   0.00000E+000   0.00000E+000   0.00000E+000   0.80731E-002   0.00000E+000   0.00000E+000   0.00000E+000   0.80731E-002
   0.81720E-002   0.00000E+000   0.00000E+000   0.00000E+000   0.81720E-002   0.00000E+000   0.00000E+000   0.00000E+000   0.81720E-002
   0.69923E-002   0.00000E+000   0.00000E+000   0.00000E+000   0.69923E-002   0.00000E+000   0.00000E+000   0.00000E+000   0.69923E-002
   0.79912E-002   0.00000E+000   0.00000E+000   0.00000E+000   0.79912E-002   0.00000E+000   0.00000E+000   0.00000E+000   0.79912E-002
   0.72440E-002   0.00000E+000   0.00000E+000   0.00000E+000   0.72440E-002   0.00000E+000   0.00000E+000   0.00000E+000   0.72440E-002
   0.00000E+000   0.00000E+000   0.00000E+000   0.00000E+000   0.00000E+000   0.00000E+000   0.00000E+000   0.00000E+000   0.00000E+000
   0.64059E-002   0.00000E+000   0.00000E+000   0.00000E+000   0.64059E-002   0.00000E+000   0.00000E+000   0.00000E+000   0.64059E-002
   0.65228E-002   0.00000E+000   0.00000E+000   0.00000E+000   0.65228E-002   0.00000E+000   0.00000E+000   0.00000E+000   0.65228E-002
   0.47857E-002   0.00000E+000   0.00000E+000   0.00000E+000   0.47857E-002   0.00000E+000   0.00000E+000   0.00000E+000   0.47857E-002
   0.36410E-002   0.00000E+000   0.00000E+000   0.00000E+000   0.36410E-002   0.00000E+000   0.00000E+000   0.00000E+000   0.36410E-002
   0.27600E-002   0.00000E+000   0.00000E+000   0.00000E+000   0.27600E-002   0.00000E+000   0.00000E+000   0.00000E+000   0.27600E-002
   0.27699E-002   0.00000E+000   0.00000E+000   0.00000E+000   0.27699E-002   0.00000E+000   0.00000E+000   0.00000E+000   0.27699E-002
   0.34872E-002   0.00000E+000   0.00000E+000   0.00000E+000   0.34872E-002   0.00000E+000   0.00000E+000   0.00000E+000   0.34872E-002
   0.35531E-002   0.00000E+000   0.00000E+000   0.00000E+000   0.35531E-002   0.00000E+000   0.00000E+000   0.00000E+000   0.35531E-002
   0.90470E-002   0.00000E+000   0.00000E+000   0.00000E+000   0.90470E-002   0.00000E+000   0.00000E+000   0.00000E+000   0.90470E-002
   0.72640E-002   0.00000E+000   0.00000E+000   0.00000E+000   0.72640E-002   0.00000E+000   0.00000E+000   0.00000E+000   0.72640E-002
   0.86705E-003   0.00000E+000   0.00000E+000   0.00000E+000   0.86705E-003   0.00000E+000   0.00000E+000   0.00000E+000   0.86705E-003
   0.73539E-002   0.00000E+000   0.00000E+000   0.00000E+000   0.73539E-002   0.00000E+000   0.00000E+000   0.00000E+000   0.73539E-002
   0.00000E+000   0.00000E+000   0.00000E+000   0.00000E+000   0.00000E+000   0.00000E+000   0.00000E+000   0.00000E+000   0.00000E+000
   0.00000E+000   0.00000E+000   0.00000E+000   0.00000E+000   0.00000E+000   0.00000E+000   0.00000E+000   0.00000E+000   0.00000E+000
   0.00000E+000   0.00000E+000   0.00000E+000   0.00000E+000   0.00000E+000   0.00000E+000   0.00000E+000   0.00000E+000   0.00000E+000
   0.25881E-002   0.00000E+000   0.00000E+000   0.00000E+000   0.25881E-002   0.00000E+000   0.00000E+000   0.00000E+000   0.25881E-002
   0.39866E-002   0.00000E+000   0.00000E+000   0.00000E+000   0.39866E-002   0.00000E+000   0.00000E+000   0.00000E+000   0.39866E-002
   0.46139E-002   0.00000E+000   0.00000E+000   0.00000E+000   0.46139E-002   0.00000E+000   0.00000E+000   0.00000E+000   0.46139E-002
   0.18500E-002   0.00000E+000   0.00000E+000   0.00000E+000   0.18500E-002   0.00000E+000   0.00000E+000   0.00000E+000   0.18500E-002
   0.18350E-002   0.00000E+000   0.00000E+000   0.00000E+000   0.18350E-002   0.00000E+000   0.00000E+000   0.00000E+000   0.18350E-002
   0.37439E-002   0.00000E+000   0.00000E+000   0.00000E+000   0.37439E-002   0.00000E+000   0.00000E+000   0.00000E+000   0.37439E-002
   0.37319E-002   0.00000E+000   0.00000E+000   0.00000E+000   0.37319E-002   0.00000E+000   0.00000E+000   0.00000E+000   0.37319E-002
   0.27799E-002   0.00000E+000   0.00000E+000   0.00000E+000   0.27799E-002   0.00000E+000   0.00000E+000   0.00000E+000   0.27799E-002
   0.18200E-002   0.00000E+000   0.00000E+000   0.00000E+000   0.18200E-002   0.00000E+000   0.00000E+000   0.00000E+000   0.18200E-002
   0.91230E-002   0.00000E+000   0.00000E+000   0.00000E+000   0.91230E-002   0.00000E+000   0.00000E+000   0.00000E+000   0.91230E-002
   0.82699E-002   0.00000E+000   0.00000E+000   0.00000E+000   0.82699E-002   0.00000E+000   0.00000E+000   0.00000E+000   0.82699E-002
   0.91779E-002   0.00000E+000   0.00000E+000   0.00000E+000   0.91779E-002   0.00000E+000   0.00000E+000   0.00000E+000   0.91779E-002
   0.81920E-002   0.00000E+000   0.00000E+000   0.00000E+000   0.81920E-002   0.00000E+000   0.00000E+000   0.00000E+000   0.81920E-002
   0.14534E-002   0.00000E+000   0.00000E+000   0.00000E+000   0.14534E-002   0.00000E+000   0.00000E+000   0.00000E+000   0.14534E-002
   0.65028E-002   0.00000E+000   0.00000E+000   0.00000E+000   0.65028E-002   0.00000E+000   0.00000E+000   0.00000E+000   0.65028E-002
   0.73259E-002   0.00000E+000   0.00000E+000   0.00000E+000   0.73259E-002   0.00000E+000   0.00000E+000   0.00000E+000   0.73259E-002
   0.99890E-002   0.00000E+000   0.00000E+000   0.00000E+000   0.99890E-002   0.00000E+000   0.00000E+000   0.00000E+000   0.99890E-002
   0.99890E-002   0.00000E+000   0.00000E+000   0.00000E+000   0.99890E-002   0.00000E+000   0.00000E+000   0.00000E+000   0.99890E-002
   0.00000E+000   0.00000E+000   0.00000E+000   0.00000E+000   0.00000E+000   0.00000E+000   0.00000E+000   0.00000E+000   0.00000E+000
   0.00000E+000   0.00000E+000   0.00000E+000   0.00000E+000   0.00000E+000   0.00000E+000   0.00000E+000   0.00000E+000   0.00000E+000
   0.99890E-002   0.00000E+000   0.00000E+000   0.00000E+000   0.99890E-002   0.00000E+000   0.00000E+000   0.00000E+000   0.99890E-002
   0.99890E-002   0.00000E+000   0.00000E+000   0.00000E+000   0.99890E-002   0.00000E+000   0.00000E+000   0.00000E+000   0.99890E-002
   0.99890E-002   0.00000E+000   0.00000E+000   0.00000E+000   0.99890E-002   0.00000E+000   0.00000E+000   0.00000E+000   0.99890E-002
   0.99890E-002   0.00000E+000   0.00000E+000   0.00000E+000   0.99890E-002   0.00000E+000   0.00000E+000   0.00000E+000   0.99890E-002
   0.99890E-002   0.00000E+000   0.00000E+000   0.00000E+000   0.99890E-002   0.00000E+000   0.00000E+000   0.00000E+000   0.99890E-002
   0.00000E+000   0.00000E+000   0.00000E+000   0.00000E+000   0.00000E+000   0.00000E+000   0.00000E+000   0.00000E+000   0.00000E+000
   0.17261E-002   0.00000E+000   0.00000E+000   0.00000E+000   0.17261E-002   0.00000E+000   0.00000E+000   0.00000E+000   0.17261E-002
   0.65348E-002   0.00000E+000   0.00000E+000   0.00000E+000   0.65348E-002   0.00000E+000   0.00000E+000   0.00000E+000   0.65348E-002
   0.99890E-002   0.00000E+000   0.00000E+000   0.00000E+000   0.99890E-002   0.00000E+000   0.00000E+000   0.00000E+000   0.99890E-002
   0.55069E-002   0.00000E+000   0.00000E+000   0.00000E+000   0.55069E-002   0.00000E+000   0.00000E+000   0.00000E+000   0.55069E-002
   0.73409E-002   0.00000E+000   0.00000E+000   0.00000E+000   0.73409E-002   0.00000E+000   0.00000E+000   0.00000E+000   0.73409E-002
   0.80092E-002   0.00000E+000   0.00000E+000   0.00000E+000   0.80092E-002   0.00000E+000   0.00000E+000   0.00000E+000   0.80092E-002
   0.82369E-002   0.00000E+000   0.00000E+000   0.00000E+000   0.82369E-002   0.00000E+000   0.00000E+000   0.00000E+000   0.82369E-002
   0.73389E-002   0.00000E+000   0.00000E+000   0.00000E+000   0.73389E-002   0.00000E+000   0.00000E+000   0.00000E+000   0.73389E-002
   0.87174E-002   0.00000E+000   0.00000E+000   0.00000E+000   0.87174E-002   0.00000E+000   0.00000E+000   0.00000E+000   0.87174E-002
   0.88263E-002   0.00000E+000   0.00000E+000   0.00000E+000   0.88263E-002   0.00000E+000   0.00000E+000   0.00000E+000   0.88263E-002
   0.90900E-002   0.00000E+000   0.00000E+000   0.00000E+000   0.90900E-002   0.00000E+000   0.00000E+000   0.00000E+000   0.90900E-002
   0.90510E-002   0.00000E+000   0.00000E+000   0.00000E+000   0.90510E-002   0.00000E+000   0.00000E+000   0.00000E+000   0.90510E-002
   0.99890E-002   0.00000E+000   0.00000E+000   0.00000E+000   0.99890E-002   0.00000E+000   0.00000E+000   0.00000E+000   0.99890E-002
   0.82349E-002   0.00000E+000   0.00000E+000   0.00000E+000   0.82349E-002   0.00000E+000   0.00000E+000   0.00000E+000   0.82349E-002
   0.82239E-002   0.00000E+000   0.00000E+000   0.00000E+000   0.82239E-002   0.00000E+000   0.00000E+000   0.00000E+000   0.82239E-002
   0.19179E-002   0.00000E+000   0.00000E+000   0.00000E+000   0.19179E-002   0.00000E+000   0.00000E+000   0.00000E+000   0.19179E-002
   0.91499E-003   0.00000E+000   0.00000E+000   0.00000E+000   0.91499E-003   0.00000E+000   0.00000E+000   0.00000E+000   0.91499E-003
   0.18120E-002   0.00000E+000   0.00000E+000   0.00000E+000   0.18120E-002   0.00000E+000   0.00000E+000   0.00000E+000   0.18120E-002
   0.00000E+000   0.00000E+000   0.00000E+000   0.00000E+000   0.00000E+000   0.00000E+000   0.00000E+000   0.00000E+000   0.00000E+000
   0.82279E-002   0.00000E+000   0.00000E+000   0.00000E+000   0.82279E-002   0.00000E+000   0.00000E+000   0.00000E+000   0.82279E-002
   0.82140E-002   0.00000E+000   0.00000E+000   0.00000E+000   0.82140E-002   0.00000E+000   0.00000E+000   0.00000E+000   0.82140E-002
   0.91140E-002   0.00000E+000   0.00000E+000   0.00000E+000   0.91140E-002   0.00000E+000   0.00000E+000   0.00000E+000   0.91140E-002
   0.00000E+000   0.00000E+000   0.00000E+000   0.00000E+000   0.00000E+000   0.00000E+000   0.00000E+000   0.00000E+000   0.00000E+000
   0.90201E-003   0.00000E+000   0.00000E+000   0.00000E+000   0.90201E-003   0.00000E+000   0.00000E+000   0.00000E+000   0.90201E-003
   0.00000E+000   0.00000E+000   0.00000E+000   0.00000E+000   0.00000E+000   0.00000E+000   0.00000E+000   0.00000E+000   0.00000E+000
   0.90600E-003   0.00000E+000   0.00000E+000   0.00000E+000   0.90600E-003   0.00000E+000   0.00000E+000   0.00000E+000   0.90600E-003
   0.18390E-002   0.00000E+000   0.00000E+000   0.00000E+000   0.18390E-002   0.00000E+000   0.00000E+000   0.00000E+000   0.18390E-002
   0.99890E-002   0.00000E+000   0.00000E+000   0.00000E+000   0.99890E-002   0.00000E+000   0.00000E+000   0.00000E+000   0.99890E-002
   0.82449E-002   0.00000E+000   0.00000E+000   0.00000E+000   0.82449E-002   0.00000E+000   0.00000E+000   0.00000E+000   0.82449E-002
   0.91699E-003   0.00000E+000   0.00000E+000   0.00000E+000   0.91699E-003   0.00000E+000   0.00000E+000   0.00000E+000   0.91699E-003
   0.00000E+000   0.00000E+000   0.00000E+000   0.00000E+000   0.00000E+000   0.00000E+000   0.00000E+000   0.00000E+000   0.00000E+000
   0.99890E-002   0.00000E+000   0.00000E+000   0.00000E+000   0.99890E-002   0.00000E+000   0.00000E+000   0.00000E+000   0.99890E-002
   0.89801E-003   0.00000E+000   0.00000E+000   0.00000E+000   0.89801E-003   0.00000E+000   0.00000E+000   0.00000E+000   0.89801E-003
   0.00000E+000   0.00000E+000   0.00000E+000   0.00000E+000   0.00000E+000   0.00000E+000   0.00000E+000   0.00000E+000   0.00000E+000
   0.18040E-002   0.00000E+000   0.00000E+000   0.00000E+000   0.18040E-002   0.00000E+000   0.00000E+000   0.00000E+000   0.18040E-002
   0.82449E-002   0.00000E+000   0.00000E+000   0.00000E+000   0.82449E-002   0.00000E+000   0.00000E+000   0.00000E+000   0.82449E-002
   0.91190E-002   0.00000E+000   0.00000E+000   0.00000E+000   0.91190E-002   0.00000E+000   0.00000E+000   0.00000E+000   0.91190E-002
   0.60234E-003   0.00000E+000   0.00000E+000   0.00000E+000   0.60234E-003   0.00000E+000   0.00000E+000   0.00000E+000   0.60234E-003
   0.00000E+000   0.00000E+000   0.00000E+000   0.00000E+000   0.00000E+000   0.00000E+000   0.00000E+000   0.00000E+000   0.00000E+000
   0.00000E+000   0.00000E+000   0.00000E+000   0.00000E+000   0.00000E+000   0.00000E+000   0.00000E+000   0.00000E+000   0.00000E+000
   0.64289E-002   0.00000E+000   0.00000E+000   0.00000E+000   0.64289E-002   0.00000E+000   0.00000E+000   0.00000E+000   0.64289E-002
   0.55019E-002   0.00000E+000   0.00000E+000   0.00000E+000   0.55019E-002   0.00000E+000   0.00000E+000   0.00000E+000   0.55019E-002
   0.99890E-002   0.00000E+000   0.00000E+000   0.00000E+000   0.99890E-002   0.00000E+000   0.00000E+000   0.00000E+000   0.99890E-002
   0.81560E-002   0.00000E+000   0.00000E+000   0.00000E+000   0.81560E-002   0.00000E+000   0.00000E+000   0.00000E+000   0.81560E-002
   0.82599E-002   0.00000E+000   0.00000E+000   0.00000E+000   0.82599E-002   0.00000E+000   0.00000E+000   0.00000E+000   0.82599E-002
   0.73989E-002   0.00000E+000   0.00000E+000   0.00000E+000   0.73989E-002   0.00000E+000   0.00000E+000   0.00000E+000   0.73989E-002
   0.70592E-002   0.00000E+000   0.00000E+000   0.00000E+000   0.70592E-002   0.00000E+000   0.00000E+000   0.00000E+000   0.70592E-002
   0.63460E-002   0.00000E+000   0.00000E+000   0.00000E+000   0.63460E-002   0.00000E+000   0.00000E+000   0.00000E+000   0.63460E-002
   0.99890E-002   0.00000E+000   0.00000E+000   0.00000E+000   0.99890E-002   0.00000E+000   0.00000E+000   0.00000E+000   0.99890E-002
   0.99890E-002   0.00000E+000   0.00000E+000   0.00000E+000   0.99890E-002   0.00000E+000   0.00000E+000   0.00000E+000   0.99890E-002
   0.99890E-002   0.00000E+000   0.00000E+000   0.00000E+000   0.99890E-002   0.00000E+000   0.00000E+000   0.00000E+000   0.99890E-002
   0.36420E-002   0.00000E+000   0.00000E+000   0.00000E+000   0.36420E-002   0.00000E+000   0.00000E+000   0.00000E+000   0.36420E-002
   0.64319E-002   0.00000E+000   0.00000E+000   0.00000E+000   0.64319E-002   0.00000E+000   0.00000E+000   0.00000E+000   0.64319E-002
   0.99890E-002   0.00000E+000   0.00000E+000   0.00000E+000   0.99890E-002   0.00000E+000   0.00000E+000   0.00000E+000   0.99890E-002
   0.99890E-002   0.00000E+000   0.00000E+000   0.00000E+000   0.99890E-002   0.00000E+000   0.00000E+000   0.00000E+000   0.99890E-002
   0.54520E-002   0.00000E+000   0.00000E+000   0.00000E+000   0.54520E-002   0.00000E+000   0.00000E+000   0.00000E+000   0.54520E-002
   0.91010E-002   0.00000E+000   0.00000E+000   0.00000E+000   0.91010E-002   0.00000E+000   0.00000E+000   0.00000E+000   0.91010E-002
   0.00000E+000   0.00000E+000   0.00000E+000   0.00000E+000   0.00000E+000   0.00000E+000   0.00000E+000   0.00000E+000   0.00000E+000
   0.99890E-002   0.00000E+000   0.00000E+000   0.00000E+000   0.99890E-002   0.00000E+000   0.00000E+000   0.00000E+000   0.99890E-002
   0.91220E-002   0.00000E+000   0.00000E+000   0.00000E+000   0.91220E-002   0.00000E+000   0.00000E+000   0.00000E+000   0.91220E-002
   0.99890E-002   0.00000E+000   0.00000E+000   0.00000E+000   0.99890E-002   0.00000E+000   0.00000E+000   0.00000E+000   0.99890E-002
   0.64129E-002   0.00000E+000   0.00000E+000   0.00000E+000   0.64129E-002   0.00000E+000   0.00000E+000   0.00000E+000   0.64129E-002
   0.55669E-002   0.00000E+000   0.00000E+000   0.00000E+000   0.55669E-002   0.00000E+000   0.00000E+000   0.00000E+000   0.55669E-002
   0.73949E-002   0.00000E+000   0.00000E+000   0.00000E+000   0.73949E-002   0.00000E+000   0.00000E+000   0.00000E+000   0.73949E-002
   0.73239E-002   0.00000E+000   0.00000E+000   0.00000E+000   0.73239E-002   0.00000E+000   0.00000E+000   0.00000E+000   0.73239E-002
   0.82419E-002   0.00000E+000   0.00000E+000   0.00000E+000   0.82419E-002   0.00000E+000   0.00000E+000   0.00000E+000   0.82419E-002
   0.72970E-002   0.00000E+000   0.00000E+000   0.00000E+000   0.72970E-002   0.00000E+000   0.00000E+000   0.00000E+000   0.72970E-002
   0.99890E-002   0.00000E+000   0.00000E+000   0.00000E+000   0.99890E-002   0.00000E+000   0.00000E+000   0.00000E+000   0.99890E-002
   0.49995E-002   0.00000E+000   0.00000E+000   0.00000E+000   0.49995E-002   0.00000E+000   0.00000E+000   0.00000E+000   0.49995E-002
   0.00000E+000   0.00000E+000   0.00000E+000   0.00000E+000   0.00000E+000   0.00000E+000   0.00000E+000   0.00000E+000   0.00000E+000
   0.00000E+000   0.00000E+000   0.00000E+000   0.00000E+000   0.00000E+000   0.00000E+000   0.00000E+000   0.00000E+000   0.00000E+000
   0.57736E-002   0.00000E+000   0.00000E+000   0.00000E+000   0.57736E-002   0.00000E+000   0.00000E+000   0.00000E+000   0.57736E-002
   0.89901E-002   0.00000E+000   0.00000E+000   0.00000E+000   0.89901E-002   0.00000E+000   0.00000E+000   0.00000E+000   0.89901E-002
   0.65258E-002   0.00000E+000   0.00000E+000   0.00000E+000   0.65258E-002   0.00000E+000   0.00000E+000   0.00000E+000   0.65258E-002
   0.73709E-002   0.00000E+000   0.00000E+000   0.00000E+000   0.73709E-002   0.00000E+000   0.00000E+000   0.00000E+000   0.73709E-002
   0.99890E-002   0.00000E+000   0.00000E+000   0.00000E+000   0.99890E-002   0.00000E+000   0.00000E+000   0.00000E+000   0.99890E-002
   0.82519E-002   0.00000E+000   0.00000E+000   0.00000E+000   0.82519E-002   0.00000E+000   0.00000E+000   0.00000E+000   0.82519E-002
   0.82409E-002   0.00000E+000   0.00000E+000   0.00000E+000   0.82409E-002   0.00000E+000   0.00000E+000   0.00000E+000   0.82409E-002
   0.25662E-002   0.00000E+000   0.00000E+000   0.00000E+000   0.25662E-002   0.00000E+000   0.00000E+000   0.00000E+000   0.25662E-002
   0.45170E-002   0.00000E+000   0.00000E+000   0.00000E+000   0.45170E-002   0.00000E+000   0.00000E+000   0.00000E+000   0.45170E-002
   0.34532E-002   0.00000E+000   0.00000E+000   0.00000E+000   0.34532E-002   0.00000E+000   0.00000E+000   0.00000E+000   0.34532E-002
   0.74758E-002   0.00000E+000   0.00000E+000   0.00000E+000   0.74758E-002   0.00000E+000   0.00000E+000   0.00000E+000   0.74758E-002
   0.55179E-002   0.00000E+000   0.00000E+000   0.00000E+000   0.55179E-002   0.00000E+000   0.00000E+000   0.00000E+000   0.55179E-002
   0.39956E-002   0.00000E+000   0.00000E+000   0.00000E+000   0.39956E-002   0.00000E+000   0.00000E+000   0.00000E+000   0.39956E-002
   0.64988E-002   0.00000E+000   0.00000E+000   0.00000E+000   0.64988E-002   0.00000E+000   0.00000E+000   0.00000E+000   0.64988E-002
   0.00000E+000   0.00000E+000   0.00000E+000   0.00000E+000   0.00000E+000   0.00000E+000   0.00000E+000   0.00000E+000   0.00000E+000
   0.64159E-002   0.00000E+000   0.00000E+000   0.00000E+000   0.64159E-002   0.00000E+000   0.00000E+000   0.00000E+000   0.64159E-002
   0.19978E-002   0.00000E+000   0.00000E+000   0.00000E+000   0.19978E-002   0.00000E+000   0.00000E+000   0.00000E+000   0.19978E-002
   0.65418E-002   0.00000E+000   0.00000E+000   0.00000E+000   0.65418E-002   0.00000E+000   0.00000E+000   0.00000E+000   0.65418E-002
   0.45530E-002   0.00000E+000   0.00000E+000   0.00000E+000   0.45530E-002   0.00000E+000   0.00000E+000   0.00000E+000   0.45530E-002
   0.99890E-002   0.00000E+000   0.00000E+000   0.00000E+000   0.99890E-002   0.00000E+000   0.00000E+000   0.00000E+000   0.99890E-002
   0.00000E+000   0.00000E+000   0.00000E+000   0.00000E+000   0.00000E+000   0.00000E+000   0.00000E+000   0.00000E+000   0.00000E+000
   0.27680E-002   0.00000E+000   0.00000E+000   0.00000E+000   0.27680E-002   0.00000E+000   0.00000E+000   0.00000E+000   0.27680E-002
   0.00000E+000   0.00000E+000   0.00000E+000   0.00000E+000   0.00000E+000   0.00000E+000   0.00000E+000   0.00000E+000   0.00000E+000
   0.99890E-002   0.00000E+000   0.00000E+000   0.00000E+000   0.99890E-002   0.00000E+000   0.00000E+000   0.00000E+000   0.99890E-002
   0.99890E-002   0.00000E+000   0.00000E+000   0.00000E+000   0.99890E-002   0.00000E+000   0.00000E+000   0.00000E+000   0.99890E-002
   0.64329E-002   0.00000E+000   0.00000E+000   0.00000E+000   0.64329E-002   0.00000E+000   0.00000E+000   0.00000E+000   0.64329E-002
   0.74088E-002   0.00000E+000   0.00000E+000   0.00000E+000   0.74088E-002   0.00000E+000   0.00000E+000   0.00000E+000   0.74088E-002
   0.65368E-002   0.00000E+000   0.00000E+000   0.00000E+000   0.65368E-002   0.00000E+000   0.00000E+000   0.00000E+000   0.65368E-002
   0.73339E-002   0.00000E+000   0.00000E+000   0.00000E+000   0.73339E-002   0.00000E+000   0.00000E+000   0.00000E+000   0.73339E-002
   0.41754E-002   0.00000E+000   0.00000E+000   0.00000E+000   0.41754E-002   0.00000E+000   0.00000E+000   0.00000E+000   0.41754E-002
   0.73739E-002   0.00000E+000   0.00000E+000   0.00000E+000   0.73739E-002   0.00000E+000   0.00000E+000   0.00000E+000   0.73739E-002
   0.54920E-002   0.00000E+000   0.00000E+000   0.00000E+000   0.54920E-002   0.00000E+000   0.00000E+000   0.00000E+000   0.54920E-002
   0.99890E-002   0.00000E+000   0.00000E+000   0.00000E+000   0.99890E-002   0.00000E+000   0.00000E+000   0.00000E+000   0.99890E-002
   0.00000E+000   0.00000E+000   0.00000E+000   0.00000E+000   0.00000E+000   0.00000E+000   0.00000E+000   0.00000E+000   0.00000E+000
   0.99890E-002   0.00000E+000   0.00000E+000   0.00000E+000   0.99890E-002   0.00000E+000   0.00000E+000   0.00000E+000   0.99890E-002
   0.80701E-002   0.00000E+000   0.00000E+000   0.00000E+000   0.80701E-002   0.00000E+000   0.00000E+000   0.00000E+000   0.80701E-002
   0.53171E-002   0.00000E+000   0.00000E+000   0.00000E+000   0.53171E-002   0.00000E+000   0.00000E+000   0.00000E+000   0.53171E-002
   0.53761E-002   0.00000E+000   0.00000E+000   0.00000E+000   0.53761E-002   0.00000E+000   0.00000E+000   0.00000E+000   0.53761E-002
   0.60873E-002   0.00000E+000   0.00000E+000   0.00000E+000   0.60873E-002   0.00000E+000   0.00000E+000   0.00000E+000   0.60873E-002
   0.53721E-002   0.00000E+000   0.00000E+000   0.00000E+000   0.53721E-002   0.00000E+000   0.00000E+000   0.00000E+000   0.53721E-002
   0.51863E-002   0.00000E+000   0.00000E+000   0.00000E+000   0.51863E-002   0.00000E+000   0.00000E+000   0.00000E+000   0.51863E-002
   0.46619E-002   0.00000E+000   0.00000E+000   0.00000E+000   0.46619E-002   0.00000E+000   0.00000E+000   0.00000E+000   0.46619E-002
   0.54570E-002   0.00000E+000   0.00000E+000   0.00000E+000   0.54570E-002   0.00000E+000   0.00000E+000   0.00000E+000   0.54570E-002
   0.61962E-002   0.00000E+000   0.00000E+000   0.00000E+000   0.61962E-002   0.00000E+000   0.00000E+000   0.00000E+000   0.61962E-002
   0.62541E-002   0.00000E+000   0.00000E+000   0.00000E+000   0.62541E-002   0.00000E+000   0.00000E+000   0.00000E+000   0.62541E-002
   0.46239E-002   0.00000E+000   0.00000E+000   0.00000E+000   0.46239E-002   0.00000E+000   0.00000E+000   0.00000E+000   0.46239E-002
   0.60643E-002   0.00000E+000   0.00000E+000   0.00000E+000   0.60643E-002   0.00000E+000   0.00000E+000   0.00000E+000   0.60643E-002
   0.58785E-002   0.00000E+000   0.00000E+000   0.00000E+000   0.58785E-002   0.00000E+000   0.00000E+000   0.00000E+000   0.58785E-002
   0.54600E-002   0.00000E+000   0.00000E+000   0.00000E+000   0.54600E-002   0.00000E+000   0.00000E+000   0.00000E+000   0.54600E-002
   0.64859E-002   0.00000E+000   0.00000E+000   0.00000E+000   0.64859E-002   0.00000E+000   0.00000E+000   0.00000E+000   0.64859E-002
   0.56028E-002   0.00000E+000   0.00000E+000   0.00000E+000   0.56028E-002   0.00000E+000   0.00000E+000   0.00000E+000   0.56028E-002
   0.74138E-002   0.00000E+000   0.00000E+000   0.00000E+000   0.74138E-002   0.00000E+000   0.00000E+000   0.00000E+000   0.74138E-002
   0.81530E-002   0.00000E+000   0.00000E+000   0.00000E+000   0.81530E-002   0.00000E+000   0.00000E+000   0.00000E+000   0.81530E-002
   0.81271E-002   0.00000E+000   0.00000E+000   0.00000E+000   0.81271E-002   0.00000E+000   0.00000E+000   0.00000E+000   0.81271E-002
   0.84897E-002   0.00000E+000   0.00000E+000   0.00000E+000   0.84897E-002   0.00000E+000   0.00000E+000   0.00000E+000   0.84897E-002
   0.92428E-002   0.00000E+000   0.00000E+000   0.00000E+000   0.92428E-002   0.00000E+000   0.00000E+000   0.00000E+000   0.92428E-002
   0.86475E-002   0.00000E+000   0.00000E+000   0.00000E+000   0.86475E-002   0.00000E+000   0.00000E+000   0.00000E+000   0.86475E-002
   0.85806E-002   0.00000E+000   0.00000E+000   0.00000E+000   0.85806E-002   0.00000E+000   0.00000E+000   0.00000E+000   0.85806E-002
   0.78284E-002   0.00000E+000   0.00000E+000   0.00000E+000   0.78284E-002   0.00000E+000   0.00000E+000   0.00000E+000   0.78284E-002
   0.91419E-002   0.00000E+000   0.00000E+000   0.00000E+000   0.91419E-002   0.00000E+000   0.00000E+000   0.00000E+000   0.91419E-002
   0.79063E-002   0.00000E+000   0.00000E+000   0.00000E+000   0.79063E-002   0.00000E+000   0.00000E+000   0.00000E+000   0.79063E-002
   0.72550E-002   0.00000E+000   0.00000E+000   0.00000E+000   0.72550E-002   0.00000E+000   0.00000E+000   0.00000E+000   0.72550E-002
   0.83508E-002   0.00000E+000   0.00000E+000   0.00000E+000   0.83508E-002   0.00000E+000   0.00000E+000   0.00000E+000   0.83508E-002
   0.75437E-002   0.00000E+000   0.00000E+000   0.00000E+000   0.75437E-002   0.00000E+000   0.00000E+000   0.00000E+000   0.75437E-002
   0.76216E-002   0.00000E+000   0.00000E+000   0.00000E+000   0.76216E-002   0.00000E+000   0.00000E+000   0.00000E+000   0.76216E-002
   0.27000E-002   0.00000E+000   0.00000E+000   0.00000E+000   0.27000E-002   0.00000E+000   0.00000E+000   0.00000E+000   0.27000E-002
   0.18570E-002   0.00000E+000   0.00000E+000   0.00000E+000   0.18570E-002   0.00000E+000   0.00000E+000   0.00000E+000   0.18570E-002
   0.19558E-002   0.00000E+000   0.00000E+000   0.00000E+000   0.19558E-002   0.00000E+000   0.00000E+000   0.00000E+000   0.19558E-002
   0.27849E-002   0.00000E+000   0.00000E+000   0.00000E+000   0.27849E-002   0.00000E+000   0.00000E+000   0.00000E+000   0.27849E-002
   0.24083E-002   0.00000E+000   0.00000E+000   0.00000E+000   0.24083E-002   0.00000E+000   0.00000E+000   0.00000E+000   0.24083E-002
   0.25911E-002   0.00000E+000   0.00000E+000   0.00000E+000   0.25911E-002   0.00000E+000   0.00000E+000   0.00000E+000   0.25911E-002
   0.35431E-002   0.00000E+000   0.00000E+000   0.00000E+000   0.35431E-002   0.00000E+000   0.00000E+000   0.00000E+000   0.35431E-002
   0.35781E-002   0.00000E+000   0.00000E+000   0.00000E+000   0.35781E-002   0.00000E+000   0.00000E+000   0.00000E+000   0.35781E-002
   0.28429E-002   0.00000E+000   0.00000E+000   0.00000E+000   0.28429E-002   0.00000E+000   0.00000E+000   0.00000E+000   0.28429E-002
   0.34981E-002   0.00000E+000   0.00000E+000   0.00000E+000   0.34981E-002   0.00000E+000   0.00000E+000   0.00000E+000   0.34981E-002
   0.79472E-002   0.00000E+000   0.00000E+000   0.00000E+000   0.79472E-002   0.00000E+000   0.00000E+000   0.00000E+000   0.79472E-002
   0.81770E-002   0.00000E+000   0.00000E+000   0.00000E+000   0.81770E-002   0.00000E+000   0.00000E+000   0.00000E+000   0.81770E-002
   0.72570E-002   0.00000E+000   0.00000E+000   0.00000E+000   0.72570E-002   0.00000E+000   0.00000E+000   0.00000E+000   0.72570E-002
   0.72430E-002   0.00000E+000   0.00000E+000   0.00000E+000   0.72430E-002   0.00000E+000   0.00000E+000   0.00000E+000   0.72430E-002
   0.13166E-002   0.00000E+000   0.00000E+000   0.00000E+000   0.13166E-002   0.00000E+000   0.00000E+000   0.00000E+000   0.13166E-002
   0.19519E-002   0.00000E+000   0.00000E+000   0.00000E+000   0.19519E-002   0.00000E+000   0.00000E+000   0.00000E+000   0.19519E-002
   0.13195E-002   0.00000E+000   0.00000E+000   0.00000E+000   0.13195E-002   0.00000E+000   0.00000E+000   0.00000E+000   0.13195E-002
   0.13385E-002   0.00000E+000   0.00000E+000   0.00000E+000   0.13385E-002   0.00000E+000   0.00000E+000   0.00000E+000   0.13385E-002
   0.12646E-002   0.00000E+000   0.00000E+000   0.00000E+000   0.12646E-002   0.00000E+000   0.00000E+000   0.00000E+000   0.12646E-002
   0.65428E-003   0.00000E+000   0.00000E+000   0.00000E+000   0.65428E-003   0.00000E+000   0.00000E+000   0.00000E+000   0.65428E-003
   0.14055E-002   0.00000E+000   0.00000E+000   0.00000E+000   0.14055E-002   0.00000E+000   0.00000E+000   0.00000E+000   0.14055E-002
   0.63530E-003   0.00000E+000   0.00000E+000   0.00000E+000   0.63530E-003   0.00000E+000   0.00000E+000   0.00000E+000   0.63530E-003
   0.00000E+000   0.00000E+000   0.00000E+000   0.00000E+000   0.00000E+000   0.00000E+000   0.00000E+000   0.00000E+000   0.00000E+000
   0.13195E-002   0.00000E+000   0.00000E+000   0.00000E+000   0.13195E-002   0.00000E+000   0.00000E+000   0.00000E+000   0.13195E-002
   0.21017E-002   0.00000E+000   0.00000E+000   0.00000E+000   0.21017E-002   0.00000E+000   0.00000E+000   0.00000E+000   0.21017E-002
   0.14614E-002   0.00000E+000   0.00000E+000   0.00000E+000   0.14614E-002   0.00000E+000   0.00000E+000   0.00000E+000   0.14614E-002
   0.60034E-003   0.00000E+000   0.00000E+000   0.00000E+000   0.60034E-003   0.00000E+000   0.00000E+000   0.00000E+000   0.60034E-003
   0.38328E-002   0.00000E+000   0.00000E+000   0.00000E+000   0.38328E-002   0.00000E+000   0.00000E+000   0.00000E+000   0.38328E-002
   0.31176E-002   0.00000E+000   0.00000E+000   0.00000E+000   0.31176E-002   0.00000E+000   0.00000E+000   0.00000E+000   0.31176E-002
   0.32025E-002   0.00000E+000   0.00000E+000   0.00000E+000   0.32025E-002   0.00000E+000   0.00000E+000   0.00000E+000   0.32025E-002
   0.26271E-002   0.00000E+000   0.00000E+000   0.00000E+000   0.26271E-002   0.00000E+000   0.00000E+000   0.00000E+000   0.26271E-002
   0.21376E-002   0.00000E+000   0.00000E+000   0.00000E+000   0.21376E-002   0.00000E+000   0.00000E+000   0.00000E+000   0.21376E-002
   0.25632E-002   0.00000E+000   0.00000E+000   0.00000E+000   0.25632E-002   0.00000E+000   0.00000E+000   0.00000E+000   0.25632E-002
   0.26341E-002   0.00000E+000   0.00000E+000   0.00000E+000   0.26341E-002   0.00000E+000   0.00000E+000   0.00000E+000   0.26341E-002
   0.33124E-002   0.00000E+000   0.00000E+000   0.00000E+000   0.33124E-002   0.00000E+000   0.00000E+000   0.00000E+000   0.33124E-002
   0.26011E-002   0.00000E+000   0.00000E+000   0.00000E+000   0.26011E-002   0.00000E+000   0.00000E+000   0.00000E+000   0.26011E-002
   0.79992E-002   0.00000E+000   0.00000E+000   0.00000E+000   0.79992E-002   0.00000E+000   0.00000E+000   0.00000E+000   0.79992E-002
   0.72191E-002   0.00000E+000   0.00000E+000   0.00000E+000   0.72191E-002   0.00000E+000   0.00000E+000   0.00000E+000   0.72191E-002
   0.79622E-002   0.00000E+000   0.00000E+000   0.00000E+000   0.79622E-002   0.00000E+000   0.00000E+000   0.00000E+000   0.79622E-002
   0.71012E-002   0.00000E+000   0.00000E+000   0.00000E+000   0.71012E-002   0.00000E+000   0.00000E+000   0.00000E+000   0.71012E-002
   0.66906E-002   0.00000E+000   0.00000E+000   0.00000E+000   0.66906E-002   0.00000E+000   0.00000E+000   0.00000E+000   0.66906E-002
   0.71991E-002   0.00000E+000   0.00000E+000   0.00000E+000   0.71991E-002   0.00000E+000   0.00000E+000   0.00000E+000   0.71991E-002
   0.39846E-002   0.00000E+000   0.00000E+000   0.00000E+000   0.39846E-002   0.00000E+000   0.00000E+000   0.00000E+000   0.39846E-002
   0.40875E-002   0.00000E+000   0.00000E+000   0.00000E+000   0.40875E-002   0.00000E+000   0.00000E+000   0.00000E+000   0.40875E-002
   0.45240E-002   0.00000E+000   0.00000E+000   0.00000E+000   0.45240E-002   0.00000E+000   0.00000E+000   0.00000E+000   0.45240E-002
   0.46159E-002   0.00000E+000   0.00000E+000   0.00000E+000   0.46159E-002   0.00000E+000   0.00000E+000   0.00000E+000   0.46159E-002
   0.34202E-002   0.00000E+000   0.00000E+000   0.00000E+000   0.34202E-002   0.00000E+000   0.00000E+000   0.00000E+000   0.34202E-002
   0.44441E-002   0.00000E+000   0.00000E+000   0.00000E+000   0.44441E-002   0.00000E+000   0.00000E+000   0.00000E+000   0.44441E-002
   0.35161E-002   0.00000E+000   0.00000E+000   0.00000E+000   0.35161E-002   0.00000E+000   0.00000E+000   0.00000E+000   0.35161E-002
   0.37159E-002   0.00000E+000   0.00000E+000   0.00000E+000   0.37159E-002   0.00000E+000   0.00000E+000   0.00000E+000   0.37159E-002
   0.33913E-002   0.00000E+000   0.00000E+000   0.00000E+000   0.33913E-002   0.00000E+000   0.00000E+000   0.00000E+000   0.33913E-002
   0.41484E-002   0.00000E+000   0.00000E+000   0.00000E+000   0.41484E-002   0.00000E+000   0.00000E+000   0.00000E+000   0.41484E-002
   0.62231E-003   0.00000E+000   0.00000E+000   0.00000E+000   0.62231E-003   0.00000E+000   0.00000E+000   0.00000E+000   0.62231E-003
   0.00000E+000   0.00000E+000   0.00000E+000   0.00000E+000   0.00000E+000   0.00000E+000   0.00000E+000   0.00000E+000   0.00000E+000
   0.00000E+000   0.00000E+000   0.00000E+000   0.00000E+000   0.00000E+000   0.00000E+000   0.00000E+000   0.00000E+000   0.00000E+000
   0.00000E+000   0.00000E+000   0.00000E+000   0.00000E+000   0.00000E+000   0.00000E+000   0.00000E+000   0.00000E+000   0.00000E+000
   0.35381E-002   0.00000E+000   0.00000E+000   0.00000E+000   0.35381E-002   0.00000E+000   0.00000E+000   0.00000E+000   0.35381E-002
   0.46739E-002   0.00000E+000   0.00000E+000   0.00000E+000   0.46739E-002   0.00000E+000   0.00000E+000   0.00000E+000   0.46739E-002
   0.19159E-002   0.00000E+000   0.00000E+000   0.00000E+000   0.19159E-002   0.00000E+000   0.00000E+000   0.00000E+000   0.19159E-002
   0.33753E-002   0.00000E+000   0.00000E+000   0.00000E+000   0.33753E-002   0.00000E+000   0.00000E+000   0.00000E+000   0.33753E-002
   0.20348E-002   0.00000E+000   0.00000E+000   0.00000E+000   0.20348E-002   0.00000E+000   0.00000E+000   0.00000E+000   0.20348E-002
   0.21366E-002   0.00000E+000   0.00000E+000   0.00000E+000   0.21366E-002   0.00000E+000   0.00000E+000   0.00000E+000   0.21366E-002
   0.23364E-002   0.00000E+000   0.00000E+000   0.00000E+000   0.23364E-002   0.00000E+000   0.00000E+000   0.00000E+000   0.23364E-002
   0.26970E-002   0.00000E+000   0.00000E+000   0.00000E+000   0.26970E-002   0.00000E+000   0.00000E+000   0.00000E+000   0.26970E-002
   0.28199E-002   0.00000E+000   0.00000E+000   0.00000E+000   0.28199E-002   0.00000E+000   0.00000E+000   0.00000E+000   0.28199E-002
   0.19678E-002   0.00000E+000   0.00000E+000   0.00000E+000   0.19678E-002   0.00000E+000   0.00000E+000   0.00000E+000   0.19678E-002
   0.24943E-002   0.00000E+000   0.00000E+000   0.00000E+000   0.24943E-002   0.00000E+000   0.00000E+000   0.00000E+000   0.24943E-002
   0.21486E-002   0.00000E+000   0.00000E+000   0.00000E+000   0.21486E-002   0.00000E+000   0.00000E+000   0.00000E+000   0.21486E-002
   0.13775E-002   0.00000E+000   0.00000E+000   0.00000E+000   0.13775E-002   0.00000E+000   0.00000E+000   0.00000E+000   0.13775E-002
   0.88223E-002   0.00000E+000   0.00000E+000   0.00000E+000   0.88223E-002   0.00000E+000   0.00000E+000   0.00000E+000   0.88223E-002
   0.81620E-002   0.00000E+000   0.00000E+000   0.00000E+000   0.81620E-002   0.00000E+000   0.00000E+000   0.00000E+000   0.81620E-002
   0.90860E-002   0.00000E+000   0.00000E+000   0.00000E+000   0.90860E-002   0.00000E+000   0.00000E+000   0.00000E+000   0.90860E-002
   0.31845E-002   0.00000E+000   0.00000E+000   0.00000E+000   0.31845E-002   0.00000E+000   0.00000E+000   0.00000E+000   0.31845E-002
   0.19419E-002   0.00000E+000   0.00000E+000   0.00000E+000   0.19419E-002   0.00000E+000   0.00000E+000   0.00000E+000   0.19419E-002
   0.72470E-002   0.00000E+000   0.00000E+000   0.00000E+000   0.72470E-002   0.00000E+000   0.00000E+000   0.00000E+000   0.72470E-002
   0.25492E-002   0.00000E+000   0.00000E+000   0.00000E+000   0.25492E-002   0.00000E+000   0.00000E+000   0.00000E+000   0.25492E-002
   0.44032E-002   0.00000E+000   0.00000E+000   0.00000E+000   0.44032E-002   0.00000E+000   0.00000E+000   0.00000E+000   0.44032E-002
   0.53841E-002   0.00000E+000   0.00000E+000   0.00000E+000   0.53841E-002   0.00000E+000   0.00000E+000   0.00000E+000   0.53841E-002
   0.44711E-002   0.00000E+000   0.00000E+000   0.00000E+000   0.44711E-002   0.00000E+000   0.00000E+000   0.00000E+000   0.44711E-002
   0.79812E-002   0.00000E+000   0.00000E+000   0.00000E+000   0.79812E-002   0.00000E+000   0.00000E+000   0.00000E+000   0.79812E-002
   0.55699E-002   0.00000E+000   0.00000E+000   0.00000E+000   0.55699E-002   0.00000E+000   0.00000E+000   0.00000E+000   0.55699E-002
   0.56058E-002   0.00000E+000   0.00000E+000   0.00000E+000   0.56058E-002   0.00000E+000   0.00000E+000   0.00000E+000   0.56058E-002
   0.54590E-002   0.00000E+000   0.00000E+000   0.00000E+000   0.54590E-002   0.00000E+000   0.00000E+000   0.00000E+000   0.54590E-002
   0.63940E-002   0.00000E+000   0.00000E+000   0.00000E+000   0.63940E-002   0.00000E+000   0.00000E+000   0.00000E+000   0.63940E-002
   0.46808E-002   0.00000E+000   0.00000E+000   0.00000E+000   0.46808E-002   0.00000E+000   0.00000E+000   0.00000E+000   0.46808E-002
   0.64099E-002   0.00000E+000   0.00000E+000   0.00000E+000   0.64099E-002   0.00000E+000   0.00000E+000   0.00000E+000   0.64099E-002
   0.63550E-002   0.00000E+000   0.00000E+000   0.00000E+000   0.63550E-002   0.00000E+000   0.00000E+000   0.00000E+000   0.63550E-002
   0.35451E-002   0.00000E+000   0.00000E+000   0.00000E+000   0.35451E-002   0.00000E+000   0.00000E+000   0.00000E+000   0.35451E-002
   0.56817E-002   0.00000E+000   0.00000E+000   0.00000E+000   0.56817E-002   0.00000E+000   0.00000E+000   0.00000E+000   0.56817E-002
   0.57047E-002   0.00000E+000   0.00000E+000   0.00000E+000   0.57047E-002   0.00000E+000   0.00000E+000   0.00000E+000   0.57047E-002
   0.79992E-002   0.00000E+000   0.00000E+000   0.00000E+000   0.79992E-002   0.00000E+000   0.00000E+000   0.00000E+000   0.79992E-002
   0.72650E-002   0.00000E+000   0.00000E+000   0.00000E+000   0.72650E-002   0.00000E+000   0.00000E+000   0.00000E+000   0.72650E-002
   0.81810E-002   0.00000E+000   0.00000E+000   0.00000E+000   0.81810E-002   0.00000E+000   0.00000E+000   0.00000E+000   0.81810E-002
   0.81770E-002   0.00000E+000   0.00000E+000   0.00000E+000   0.81770E-002   0.00000E+000   0.00000E+000   0.00000E+000   0.81770E-002
   0.22865E-002   0.00000E+000   0.00000E+000   0.00000E+000   0.22865E-002   0.00000E+000   0.00000E+000   0.00000E+000   0.22865E-002
   0.25612E-002   0.00000E+000   0.00000E+000   0.00000E+000   0.25612E-002   0.00000E+000   0.00000E+000   0.00000E+000   0.25612E-002
   0.32145E-002   0.00000E+000   0.00000E+000   0.00000E+000   0.32145E-002   0.00000E+000   0.00000E+000   0.00000E+000   0.32145E-002
   0.55069E-002   0.00000E+000   0.00000E+000   0.00000E+000   0.55069E-002   0.00000E+000   0.00000E+000   0.00000E+000   0.55069E-002
   0.54240E-002   0.00000E+000   0.00000E+000   0.00000E+000   0.54240E-002   0.00000E+000   0.00000E+000   0.00000E+000   0.54240E-002
   0.63470E-002   0.00000E+000   0.00000E+000   0.00000E+000   0.63470E-002   0.00000E+000   0.00000E+000   0.00000E+000   0.63470E-002
   0.54360E-002   0.00000E+000   0.00000E+000   0.00000E+000   0.54360E-002   0.00000E+000   0.00000E+000   0.00000E+000   0.54360E-002
   0.80411E-003   0.00000E+000   0.00000E+000   0.00000E+000   0.80411E-003   0.00000E+000   0.00000E+000   0.00000E+000   0.80411E-003
   0.13525E-002   0.00000E+000   0.00000E+000   0.00000E+000   0.13525E-002   0.00000E+000   0.00000E+000   0.00000E+000   0.13525E-002
   0.23544E-002   0.00000E+000   0.00000E+000   0.00000E+000   0.23544E-002   0.00000E+000   0.00000E+000   0.00000E+000   0.23544E-002
   0.27060E-002   0.00000E+000   0.00000E+000   0.00000E+000   0.27060E-002   0.00000E+000   0.00000E+000   0.00000E+000   0.27060E-002
   0.19439E-002   0.00000E+000   0.00000E+000   0.00000E+000   0.19439E-002   0.00000E+000   0.00000E+000   0.00000E+000   0.19439E-002
   0.55739E-002   0.00000E+000   0.00000E+000   0.00000E+000   0.55739E-002   0.00000E+000   0.00000E+000   0.00000E+000   0.55739E-002
   0.57197E-002   0.00000E+000   0.00000E+000   0.00000E+000   0.57197E-002   0.00000E+000   0.00000E+000   0.00000E+000   0.57197E-002
   0.49296E-002   0.00000E+000   0.00000E+000   0.00000E+000   0.49296E-002   0.00000E+000   0.00000E+000   0.00000E+000   0.49296E-002
   0.47767E-002   0.00000E+000   0.00000E+000   0.00000E+000   0.47767E-002   0.00000E+000   0.00000E+000   0.00000E+000   0.47767E-002
   0.55039E-002   0.00000E+000   0.00000E+000   0.00000E+000   0.55039E-002   0.00000E+000   0.00000E+000   0.00000E+000   0.55039E-002
   0.63950E-002   0.00000E+000   0.00000E+000   0.00000E+000   0.63950E-002   0.00000E+000   0.00000E+000   0.00000E+000   0.63950E-002
   0.51333E-002   0.00000E+000   0.00000E+000   0.00000E+000   0.51333E-002   0.00000E+000   0.00000E+000   0.00000E+000   0.51333E-002
   0.48237E-002   0.00000E+000   0.00000E+000   0.00000E+000   0.48237E-002   0.00000E+000   0.00000E+000   0.00000E+000   0.48237E-002
   0.62761E-002   0.00000E+000   0.00000E+000   0.00000E+000   0.62761E-002   0.00000E+000   0.00000E+000   0.00000E+000   0.62761E-002
   0.66037E-002   0.00000E+000   0.00000E+000   0.00000E+000   0.66037E-002   0.00000E+000   0.00000E+000   0.00000E+000   0.66037E-002
   0.53341E-002   0.00000E+000   0.00000E+000   0.00000E+000   0.53341E-002   0.00000E+000   0.00000E+000   0.00000E+000   0.53341E-002
   0.60453E-002   0.00000E+000   0.00000E+000   0.00000E+000   0.60453E-002   0.00000E+000   0.00000E+000   0.00000E+000   0.60453E-002
   0.37539E-002   0.00000E+000   0.00000E+000   0.00000E+000   0.37539E-002   0.00000E+000   0.00000E+000   0.00000E+000   0.37539E-002
   0.34952E-002   0.00000E+000   0.00000E+000   0.00000E+000   0.34952E-002   0.00000E+000   0.00000E+000   0.00000E+000   0.34952E-002
   0.19089E-002   0.00000E+000   0.00000E+000   0.00000E+000   0.19089E-002   0.00000E+000   0.00000E+000   0.00000E+000   0.19089E-002
   0.00000E+000   0.00000E+000   0.00000E+000   0.00000E+000   0.00000E+000   0.00000E+000   0.00000E+000   0.00000E+000   0.00000E+000
   0.64079E-002   0.00000E+000   0.00000E+000   0.00000E+000   0.64079E-002   0.00000E+000   0.00000E+000   0.00000E+000   0.64079E-002
   0.52972E-002   0.00000E+000   0.00000E+000   0.00000E+000   0.52972E-002   0.00000E+000   0.00000E+000   0.00000E+000   0.52972E-002
   0.43272E-002   0.00000E+000   0.00000E+000   0.00000E+000   0.43272E-002   0.00000E+000   0.00000E+000   0.00000E+000   0.43272E-002
   0.63580E-002   0.00000E+000   0.00000E+000   0.00000E+000   0.63580E-002   0.00000E+000   0.00000E+000   0.00000E+000   0.63580E-002
   0.47857E-002   0.00000E+000   0.00000E+000   0.00000E+000   0.47857E-002   0.00000E+000   0.00000E+000   0.00000E+000   0.47857E-002
   0.45160E-002   0.00000E+000   0.00000E+000   0.00000E+000   0.45160E-002   0.00000E+000   0.00000E+000   0.00000E+000   0.45160E-002
   0.45370E-002   0.00000E+000   0.00000E+000   0.00000E+000   0.45370E-002   0.00000E+000   0.00000E+000   0.00000E+000   0.45370E-002
   0.62691E-002   0.00000E+000   0.00000E+000   0.00000E+000   0.62691E-002   0.00000E+000   0.00000E+000   0.00000E+000   0.62691E-002
   0.77315E-002   0.00000E+000   0.00000E+000   0.00000E+000   0.77315E-002   0.00000E+000   0.00000E+000   0.00000E+000   0.77315E-002
   0.72850E-002   0.00000E+000   0.00000E+000   0.00000E+000   0.72850E-002   0.00000E+000   0.00000E+000   0.00000E+000   0.72850E-002
   0.73409E-002   0.00000E+000   0.00000E+000   0.00000E+000   0.73409E-002   0.00000E+000   0.00000E+000   0.00000E+000   0.73409E-002
   0.71931E-002   0.00000E+000   0.00000E+000   0.00000E+000   0.71931E-002   0.00000E+000   0.00000E+000   0.00000E+000   0.71931E-002
   0.72161E-002   0.00000E+000   0.00000E+000   0.00000E+000   0.72161E-002   0.00000E+000   0.00000E+000   0.00000E+000   0.72161E-002
   0.79642E-002   0.00000E+000   0.00000E+000   0.00000E+000   0.79642E-002   0.00000E+000   0.00000E+000   0.00000E+000   0.79642E-002
   0.81950E-002   0.00000E+000   0.00000E+000   0.00000E+000   0.81950E-002   0.00000E+000   0.00000E+000   0.00000E+000   0.81950E-002
   0.68265E-002   0.00000E+000   0.00000E+000   0.00000E+000   0.68265E-002   0.00000E+000   0.00000E+000   0.00000E+000   0.68265E-002
   0.80701E-002   0.00000E+000   0.00000E+000   0.00000E+000   0.80701E-002   0.00000E+000   0.00000E+000   0.00000E+000   0.80701E-002
   0.82189E-002   0.00000E+000   0.00000E+000   0.00000E+000   0.82189E-002   0.00000E+000   0.00000E+000   0.00000E+000   0.82189E-002
   0.86605E-002   0.00000E+000   0.00000E+000   0.00000E+000   0.86605E-002   0.00000E+000   0.00000E+000   0.00000E+000   0.86605E-002
   0.79732E-002   0.00000E+000   0.00000E+000   0.00000E+000   0.79732E-002   0.00000E+000   0.00000E+000   0.00000E+000   0.79732E-002
   0.92978E-002   0.00000E+000   0.00000E+000   0.00000E+000   0.92978E-002   0.00000E+000   0.00000E+000   0.00000E+000   0.92978E-002
   0.83089E-002   0.00000E+000   0.00000E+000   0.00000E+000   0.83089E-002   0.00000E+000   0.00000E+000   0.00000E+000   0.83089E-002
   0.93307E-002   0.00000E+000   0.00000E+000   0.00000E+000   0.93307E-002   0.00000E+000   0.00000E+000   0.00000E+000   0.93307E-002
   0.86005E-002   0.00000E+000   0.00000E+000   0.00000E+000   0.86005E-002   0.00000E+000   0.00000E+000   0.00000E+000   0.86005E-002
   0.72540E-002   0.00000E+000   0.00000E+000   0.00000E+000   0.72540E-002   0.00000E+000   0.00000E+000   0.00000E+000   0.72540E-002
   0.93117E-002   0.00000E+000   0.00000E+000   0.00000E+000   0.93117E-002   0.00000E+000   0.00000E+000   0.00000E+000   0.93117E-002
   0.99890E-002   0.00000E+000   0.00000E+000   0.00000E+000   0.99890E-002   0.00000E+000   0.00000E+000   0.00000E+000   0.99890E-002
   0.99890E-002   0.00000E+000   0.00000E+000   0.00000E+000   0.99890E-002   0.00000E+000   0.00000E+000   0.00000E+000   0.99890E-002
   0.91919E-002   0.00000E+000   0.00000E+000   0.00000E+000   0.91919E-002   0.00000E+000   0.00000E+000   0.00000E+000   0.91919E-002
   0.16272E-002   0.00000E+000   0.00000E+000   0.00000E+000   0.16272E-002   0.00000E+000   0.00000E+000   0.00000E+000   0.16272E-002
   0.88233E-002   0.00000E+000   0.00000E+000   0.00000E+000   0.88233E-002   0.00000E+000   0.00000E+000   0.00000E+000   0.88233E-002
   0.88093E-002   0.00000E+000   0.00000E+000   0.00000E+000   0.88093E-002   0.00000E+000   0.00000E+000   0.00000E+000   0.88093E-002
   0.92688E-002   0.00000E+000   0.00000E+000   0.00000E+000   0.92688E-002   0.00000E+000   0.00000E+000   0.00000E+000   0.92688E-002
   0.80352E-002   0.00000E+000   0.00000E+000   0.00000E+000   0.80352E-002   0.00000E+000   0.00000E+000   0.00000E+000   0.80352E-002
   0.80082E-002   0.00000E+000   0.00000E+000   0.00000E+000   0.80082E-002   0.00000E+000   0.00000E+000   0.00000E+000   0.80082E-002
   0.73139E-002   0.00000E+000   0.00000E+000   0.00000E+000   0.73139E-002   0.00000E+000   0.00000E+000   0.00000E+000   0.73139E-002
   0.28978E-002   0.00000E+000   0.00000E+000   0.00000E+000   0.28978E-002   0.00000E+000   0.00000E+000   0.00000E+000   0.28978E-002
   0.25682E-002   0.00000E+000   0.00000E+000   0.00000E+000   0.25682E-002   0.00000E+000   0.00000E+000   0.00000E+000   0.25682E-002
   0.19239E-002   0.00000E+000   0.00000E+000   0.00000E+000   0.19239E-002   0.00000E+000   0.00000E+000   0.00000E+000   0.19239E-002
   0.26401E-002   0.00000E+000   0.00000E+000   0.00000E+000   0.26401E-002   0.00000E+000   0.00000E+000   0.00000E+000   0.26401E-002
   0.40595E-002   0.00000E+000   0.00000E+000   0.00000E+000   0.40595E-002   0.00000E+000   0.00000E+000   0.00000E+000   0.40595E-002
   0.36809E-002   0.00000E+000   0.00000E+000   0.00000E+000   0.36809E-002   0.00000E+000   0.00000E+000   0.00000E+000   0.36809E-002
   0.27270E-002   0.00000E+000   0.00000E+000   0.00000E+000   0.27270E-002   0.00000E+000   0.00000E+000   0.00000E+000   0.27270E-002
   0.36120E-002   0.00000E+000   0.00000E+000   0.00000E+000   0.36120E-002   0.00000E+000   0.00000E+000   0.00000E+000   0.36120E-002
   0.45410E-002   0.00000E+000   0.00000E+000   0.00000E+000   0.45410E-002   0.00000E+000   0.00000E+000   0.00000E+000   0.45410E-002
   0.37389E-002   0.00000E+000   0.00000E+000   0.00000E+000   0.37389E-002   0.00000E+000   0.00000E+000   0.00000E+000   0.37389E-002
   0.94096E-002   0.00000E+000   0.00000E+000   0.00000E+000   0.94096E-002   0.00000E+000   0.00000E+000   0.00000E+000   0.94096E-002
   0.99890E-002   0.00000E+000   0.00000E+000   0.00000E+000   0.99890E-002   0.00000E+000   0.00000E+000   0.00000E+000   0.99890E-002
   0.93637E-002   0.00000E+000   0.00000E+000   0.00000E+000   0.93637E-002   0.00000E+000   0.00000E+000   0.00000E+000   0.93637E-002
   0.99890E-002   0.00000E+000   0.00000E+000   0.00000E+000   0.99890E-002   0.00000E+000   0.00000E+000   0.00000E+000   0.99890E-002
   0.34682E-002   0.00000E+000   0.00000E+000   0.00000E+000   0.34682E-002   0.00000E+000   0.00000E+000   0.00000E+000   0.34682E-002
   0.31485E-002   0.00000E+000   0.00000E+000   0.00000E+000   0.31485E-002   0.00000E+000   0.00000E+000   0.00000E+000   0.31485E-002
   0.79702E-002   0.00000E+000   0.00000E+000   0.00000E+000   0.79702E-002   0.00000E+000   0.00000E+000   0.00000E+000   0.79702E-002
   0.72660E-002   0.00000E+000   0.00000E+000   0.00000E+000   0.72660E-002   0.00000E+000   0.00000E+000   0.00000E+000   0.72660E-002
   0.71202E-002   0.00000E+000   0.00000E+000   0.00000E+000   0.71202E-002   0.00000E+000   0.00000E+000   0.00000E+000   0.71202E-002
   0.86944E-002   0.00000E+000   0.00000E+000   0.00000E+000   0.86944E-002   0.00000E+000   0.00000E+000   0.00000E+000   0.86944E-002
   0.93357E-002   0.00000E+000   0.00000E+000   0.00000E+000   0.93357E-002   0.00000E+000   0.00000E+000   0.00000E+000   0.93357E-002
   0.99890E-002   0.00000E+000   0.00000E+000   0.00000E+000   0.99890E-002   0.00000E+000   0.00000E+000   0.00000E+000   0.99890E-002
   0.86685E-002   0.00000E+000   0.00000E+000   0.00000E+000   0.86685E-002   0.00000E+000   0.00000E+000   0.00000E+000   0.86685E-002
   0.93207E-002   0.00000E+000   0.00000E+000   0.00000E+000   0.93207E-002   0.00000E+000   0.00000E+000   0.00000E+000   0.93207E-002
   0.48766E-002   0.00000E+000   0.00000E+000   0.00000E+000   0.48766E-002   0.00000E+000   0.00000E+000   0.00000E+000   0.48766E-002
   0.34342E-002   0.00000E+000   0.00000E+000   0.00000E+000   0.34342E-002   0.00000E+000   0.00000E+000   0.00000E+000   0.34342E-002
   0.38108E-002   0.00000E+000   0.00000E+000   0.00000E+000   0.38108E-002   0.00000E+000   0.00000E+000   0.00000E+000   0.38108E-002
   0.38597E-002   0.00000E+000   0.00000E+000   0.00000E+000   0.38597E-002   0.00000E+000   0.00000E+000   0.00000E+000   0.38597E-002
   0.18659E-002   0.00000E+000   0.00000E+000   0.00000E+000   0.18659E-002   0.00000E+000   0.00000E+000   0.00000E+000   0.18659E-002
   0.19618E-002   0.00000E+000   0.00000E+000   0.00000E+000   0.19618E-002   0.00000E+000   0.00000E+000   0.00000E+000   0.19618E-002
   0.19169E-002   0.00000E+000   0.00000E+000   0.00000E+000   0.19169E-002   0.00000E+000   0.00000E+000   0.00000E+000   0.19169E-002
   0.11467E-002   0.00000E+000   0.00000E+000   0.00000E+000   0.11467E-002   0.00000E+000   0.00000E+000   0.00000E+000   0.11467E-002
   0.11677E-002   0.00000E+000   0.00000E+000   0.00000E+000   0.11677E-002   0.00000E+000   0.00000E+000   0.00000E+000   0.11677E-002
   0.46219E-002   0.00000E+000   0.00000E+000   0.00000E+000   0.46219E-002   0.00000E+000   0.00000E+000   0.00000E+000   0.46219E-002
   0.43902E-002   0.00000E+000   0.00000E+000   0.00000E+000   0.43902E-002   0.00000E+000   0.00000E+000   0.00000E+000   0.43902E-002
   0.50245E-002   0.00000E+000   0.00000E+000   0.00000E+000   0.50245E-002   0.00000E+000   0.00000E+000   0.00000E+000   0.50245E-002
   0.55759E-002   0.00000E+000   0.00000E+000   0.00000E+000   0.55759E-002   0.00000E+000   0.00000E+000   0.00000E+000   0.55759E-002
   0.55948E-002   0.00000E+000   0.00000E+000   0.00000E+000   0.55948E-002   0.00000E+000   0.00000E+000   0.00000E+000   0.55948E-002
   0.45200E-002   0.00000E+000   0.00000E+000   0.00000E+000   0.45200E-002   0.00000E+000   0.00000E+000   0.00000E+000   0.45200E-002
   0.92318E-002   0.00000E+000   0.00000E+000   0.00000E+000   0.92318E-002   0.00000E+000   0.00000E+000   0.00000E+000   0.92318E-002
   0.81500E-002   0.00000E+000   0.00000E+000   0.00000E+000   0.81500E-002   0.00000E+000   0.00000E+000   0.00000E+000   0.81500E-002
   0.90640E-002   0.00000E+000   0.00000E+000   0.00000E+000   0.90640E-002   0.00000E+000   0.00000E+000   0.00000E+000   0.90640E-002
   0.90720E-002   0.00000E+000   0.00000E+000   0.00000E+000   0.90720E-002   0.00000E+000   0.00000E+000   0.00000E+000   0.90720E-002
   0.41225E-002   0.00000E+000   0.00000E+000   0.00000E+000   0.41225E-002   0.00000E+000   0.00000E+000   0.00000E+000   0.41225E-002
   0.58146E-002   0.00000E+000   0.00000E+000   0.00000E+000   0.58146E-002   0.00000E+000   0.00000E+000   0.00000E+000   0.58146E-002
   0.40695E-002   0.00000E+000   0.00000E+000   0.00000E+000   0.40695E-002   0.00000E+000   0.00000E+000   0.00000E+000   0.40695E-002
   0.56088E-002   0.00000E+000   0.00000E+000   0.00000E+000   0.56088E-002   0.00000E+000   0.00000E+000   0.00000E+000   0.56088E-002
   0.73000E-002   0.00000E+000   0.00000E+000   0.00000E+000   0.73000E-002   0.00000E+000   0.00000E+000   0.00000E+000   0.73000E-002
   0.72630E-002   0.00000E+000   0.00000E+000   0.00000E+000   0.72630E-002   0.00000E+000   0.00000E+000   0.00000E+000   0.72630E-002
   0.87504E-002   0.00000E+000   0.00000E+000   0.00000E+000   0.87504E-002   0.00000E+000   0.00000E+000   0.00000E+000   0.87504E-002
   0.82379E-002   0.00000E+000   0.00000E+000   0.00000E+000   0.82379E-002   0.00000E+000   0.00000E+000   0.00000E+000   0.82379E-002
   0.81850E-002   0.00000E+000   0.00000E+000   0.00000E+000   0.81850E-002   0.00000E+000   0.00000E+000   0.00000E+000   0.81850E-002
   0.86525E-002   0.00000E+000   0.00000E+000   0.00000E+000   0.86525E-002   0.00000E+000   0.00000E+000   0.00000E+000   0.86525E-002
   0.81850E-002   0.00000E+000   0.00000E+000   0.00000E+000   0.81850E-002   0.00000E+000   0.00000E+000   0.00000E+000   0.81850E-002
   0.63250E-002   0.00000E+000   0.00000E+000   0.00000E+000   0.63250E-002   0.00000E+000   0.00000E+000   0.00000E+000   0.63250E-002
   0.89801E-003   0.00000E+000   0.00000E+000   0.00000E+000   0.89801E-003   0.00000E+000   0.00000E+000   0.00000E+000   0.89801E-003
   0.62192E-002   0.00000E+000   0.00000E+000   0.00000E+000   0.62192E-002   0.00000E+000   0.00000E+000   0.00000E+000   0.62192E-002
   0.53801E-002   0.00000E+000   0.00000E+000   0.00000E+000   0.53801E-002   0.00000E+000   0.00000E+000   0.00000E+000   0.53801E-002
   0.62971E-002   0.00000E+000   0.00000E+000   0.00000E+000   0.62971E-002   0.00000E+000   0.00000E+000   0.00000E+000   0.62971E-002
   0.63230E-002   0.00000E+000   0.00000E+000   0.00000E+000   0.63230E-002   0.00000E+000   0.00000E+000   0.00000E+000   0.63230E-002
   0.44950E-002   0.00000E+000   0.00000E+000   0.00000E+000   0.44950E-002   0.00000E+000   0.00000E+000   0.00000E+000   0.44950E-002
   0.45850E-002   0.00000E+000   0.00000E+000   0.00000E+000   0.45850E-002   0.00000E+000   0.00000E+000   0.00000E+000   0.45850E-002
   0.26970E-002   0.00000E+000   0.00000E+000   0.00000E+000   0.26970E-002   0.00000E+000   0.00000E+000   0.00000E+000   0.26970E-002
   0.44471E-002   0.00000E+000   0.00000E+000   0.00000E+000   0.44471E-002   0.00000E+000   0.00000E+000   0.00000E+000   0.44471E-002
   0.35501E-002   0.00000E+000   0.00000E+000   0.00000E+000   0.35501E-002   0.00000E+000   0.00000E+000   0.00000E+000   0.35501E-002
   0.35201E-002   0.00000E+000   0.00000E+000   0.00000E+000   0.35201E-002   0.00000E+000   0.00000E+000   0.00000E+000   0.35201E-002
   0.44611E-002   0.00000E+000   0.00000E+000   0.00000E+000   0.44611E-002   0.00000E+000   0.00000E+000   0.00000E+000   0.44611E-002
   0.68924E-002   0.00000E+000   0.00000E+000   0.00000E+000   0.68924E-002   0.00000E+000   0.00000E+000   0.00000E+000   0.68924E-002
   0.64928E-002   0.00000E+000   0.00000E+000   0.00000E+000   0.64928E-002   0.00000E+000   0.00000E+000   0.00000E+000   0.64928E-002
   0.73050E-002   0.00000E+000   0.00000E+000   0.00000E+000   0.73050E-002   0.00000E+000   0.00000E+000   0.00000E+000   0.73050E-002
   0.66267E-002   0.00000E+000   0.00000E+000   0.00000E+000   0.66267E-002   0.00000E+000   0.00000E+000   0.00000E+000   0.66267E-002
   0.60733E-003   0.00000E+000   0.00000E+000   0.00000E+000   0.60733E-003   0.00000E+000   0.00000E+000   0.00000E+000   0.60733E-003
   0.00000E+000   0.00000E+000   0.00000E+000   0.00000E+000   0.00000E+000   0.00000E+000   0.00000E+000   0.00000E+000   0.00000E+000
   0.61432E-003   0.00000E+000   0.00000E+000   0.00000E+000   0.61432E-003   0.00000E+000   0.00000E+000   0.00000E+000   0.61432E-003
   0.00000E+000   0.00000E+000   0.00000E+000   0.00000E+000   0.00000E+000   0.00000E+000   0.00000E+000   0.00000E+000   0.00000E+000
   0.12766E-002   0.00000E+000   0.00000E+000   0.00000E+000   0.12766E-002   0.00000E+000   0.00000E+000   0.00000E+000   0.12766E-002
   0.12257E-002   0.00000E+000   0.00000E+000   0.00000E+000   0.12257E-002   0.00000E+000   0.00000E+000   0.00000E+000   0.12257E-002
   0.89901E-003   0.00000E+000   0.00000E+000   0.00000E+000   0.89901E-003   0.00000E+000   0.00000E+000   0.00000E+000   0.89901E-003
   0.93797E-003   0.00000E+000   0.00000E+000   0.00000E+000   0.93797E-003   0.00000E+000   0.00000E+000   0.00000E+000   0.93797E-003
   0.18170E-002   0.00000E+000   0.00000E+000   0.00000E+000   0.18170E-002   0.00000E+000   0.00000E+000   0.00000E+000   0.18170E-002
   0.00000E+000   0.00000E+000   0.00000E+000   0.00000E+000   0.00000E+000   0.00000E+000   0.00000E+000   0.00000E+000   0.00000E+000
   0.86904E-003   0.00000E+000   0.00000E+000   0.00000E+000   0.86904E-003   0.00000E+000   0.00000E+000   0.00000E+000   0.86904E-003
   0.12966E-002   0.00000E+000   0.00000E+000   0.00000E+000   0.12966E-002   0.00000E+000   0.00000E+000   0.00000E+000   0.12966E-002
   0.61492E-002   0.00000E+000   0.00000E+000   0.00000E+000   0.61492E-002   0.00000E+000   0.00000E+000   0.00000E+000   0.61492E-002
   0.73139E-002   0.00000E+000   0.00000E+000   0.00000E+000   0.73139E-002   0.00000E+000   0.00000E+000   0.00000E+000   0.73139E-002
   0.73119E-002   0.00000E+000   0.00000E+000   0.00000E+000   0.73119E-002   0.00000E+000   0.00000E+000   0.00000E+000   0.73119E-002
   0.54740E-002   0.00000E+000   0.00000E+000   0.00000E+000   0.54740E-002   0.00000E+000   0.00000E+000   0.00000E+000   0.54740E-002
   0.61972E-002   0.00000E+000   0.00000E+000   0.00000E+000   0.61972E-002   0.00000E+000   0.00000E+000   0.00000E+000   0.61972E-002
   0.61342E-002   0.00000E+000   0.00000E+000   0.00000E+000   0.61342E-002   0.00000E+000   0.00000E+000   0.00000E+000   0.61342E-002
   0.54650E-002   0.00000E+000   0.00000E+000   0.00000E+000   0.54650E-002   0.00000E+000   0.00000E+000   0.00000E+000   0.54650E-002
   0.86505E-002   0.00000E+000   0.00000E+000   0.00000E+000   0.86505E-002   0.00000E+000   0.00000E+000   0.00000E+000   0.86505E-002
   0.93297E-002   0.00000E+000   0.00000E+000   0.00000E+000   0.93297E-002   0.00000E+000   0.00000E+000   0.00000E+000   0.93297E-002
   0.87214E-002   0.00000E+000   0.00000E+000   0.00000E+000   0.87214E-002   0.00000E+000   0.00000E+000   0.00000E+000   0.87214E-002
   0.93727E-002   0.00000E+000   0.00000E+000   0.00000E+000   0.93727E-002   0.00000E+000   0.00000E+000   0.00000E+000   0.93727E-002
   0.86425E-002   0.00000E+000   0.00000E+000   0.00000E+000   0.86425E-002   0.00000E+000   0.00000E+000   0.00000E+000   0.86425E-002
   0.79173E-002   0.00000E+000   0.00000E+000   0.00000E+000   0.79173E-002   0.00000E+000   0.00000E+000   0.00000E+000   0.79173E-002
   0.36770E-002   0.00000E+000   0.00000E+000   0.00000E+000   0.36770E-002   0.00000E+000   0.00000E+000   0.00000E+000   0.36770E-002
   0.38148E-002   0.00000E+000   0.00000E+000   0.00000E+000   0.38148E-002   0.00000E+000   0.00000E+000   0.00000E+000   0.38148E-002
   0.61932E-003   0.00000E+000   0.00000E+000   0.00000E+000   0.61932E-003   0.00000E+000   0.00000E+000   0.00000E+000   0.61932E-003
   0.00000E+000   0.00000E+000   0.00000E+000   0.00000E+000   0.00000E+000   0.00000E+000   0.00000E+000   0.00000E+000   0.00000E+000
   0.00000E+000   0.00000E+000   0.00000E+000   0.00000E+000   0.00000E+000   0.00000E+000   0.00000E+000   0.00000E+000   0.00000E+000
   0.45580E-002   0.00000E+000   0.00000E+000   0.00000E+000   0.45580E-002   0.00000E+000   0.00000E+000   0.00000E+000   0.45580E-002
   0.35980E-002   0.00000E+000   0.00000E+000   0.00000E+000   0.35980E-002   0.00000E+000   0.00000E+000   0.00000E+000   0.35980E-002
   0.46259E-002   0.00000E+000   0.00000E+000   0.00000E+000   0.46259E-002   0.00000E+000   0.00000E+000   0.00000E+000   0.46259E-002
   0.50964E-002   0.00000E+000   0.00000E+000   0.00000E+000   0.50964E-002   0.00000E+000   0.00000E+000   0.00000E+000   0.50964E-002
   0.45240E-002   0.00000E+000   0.00000E+000   0.00000E+000   0.45240E-002   0.00000E+000   0.00000E+000   0.00000E+000   0.45240E-002
   0.54830E-002   0.00000E+000   0.00000E+000   0.00000E+000   0.54830E-002   0.00000E+000   0.00000E+000   0.00000E+000   0.54830E-002
   0.65128E-003   0.00000E+000   0.00000E+000   0.00000E+000   0.65128E-003   0.00000E+000   0.00000E+000   0.00000E+000   0.65128E-003
   0.68954E-002   0.00000E+000   0.00000E+000   0.00000E+000   0.68954E-002   0.00000E+000   0.00000E+000   0.00000E+000   0.68954E-002
   0.64029E-003   0.00000E+000   0.00000E+000   0.00000E+000   0.64029E-003   0.00000E+000   0.00000E+000   0.00000E+000   0.64029E-003
   0.12656E-002   0.00000E+000   0.00000E+000   0.00000E+000   0.12656E-002   0.00000E+000   0.00000E+000   0.00000E+000   0.12656E-002
   0.16182E-002   0.00000E+000   0.00000E+000   0.00000E+000   0.16182E-002   0.00000E+000   0.00000E+000   0.00000E+000   0.16182E-002
   0.57836E-003   0.00000E+000   0.00000E+000   0.00000E+000   0.57836E-003   0.00000E+000   0.00000E+000   0.00000E+000   0.57836E-003
   0.00000E+000   0.00000E+000   0.00000E+000   0.00000E+000   0.00000E+000   0.00000E+000   0.00000E+000   0.00000E+000   0.00000E+000
   0.00000E+000   0.00000E+000   0.00000E+000   0.00000E+000   0.00000E+000   0.00000E+000   0.00000E+000   0.00000E+000   0.00000E+000
   0.00000E+000   0.00000E+000   0.00000E+000   0.00000E+000   0.00000E+000   0.00000E+000   0.00000E+000   0.00000E+000   0.00000E+000
   0.86804E-003   0.00000E+000   0.00000E+000   0.00000E+000   0.86804E-003   0.00000E+000   0.00000E+000   0.00000E+000   0.86804E-003
   0.00000E+000   0.00000E+000   0.00000E+000   0.00000E+000   0.00000E+000   0.00000E+000   0.00000E+000   0.00000E+000   0.00000E+000
   0.12306E-002   0.00000E+000   0.00000E+000   0.00000E+000   0.12306E-002   0.00000E+000   0.00000E+000   0.00000E+000   0.12306E-002
   0.86804E-003   0.00000E+000   0.00000E+000   0.00000E+000   0.86804E-003   0.00000E+000   0.00000E+000   0.00000E+000   0.86804E-003
   0.00000E+000   0.00000E+000   0.00000E+000   0.00000E+000   0.00000E+000   0.00000E+000   0.00000E+000   0.00000E+000   0.00000E+000
   0.00000E+000   0.00000E+000   0.00000E+000   0.00000E+000   0.00000E+000   0.00000E+000   0.00000E+000   0.00000E+000   0.00000E+000
   0.16292E-002   0.00000E+000   0.00000E+000   0.00000E+000   0.16292E-002   0.00000E+000   0.00000E+000   0.00000E+000   0.16292E-002
   0.13126E-002   0.00000E+000   0.00000E+000   0.00000E+000   0.13126E-002   0.00000E+000   0.00000E+000   0.00000E+000   0.13126E-002
   0.12726E-002   0.00000E+000   0.00000E+000   0.00000E+000   0.12726E-002   0.00000E+000   0.00000E+000   0.00000E+000   0.12726E-002
   0.00000E+000   0.00000E+000   0.00000E+000   0.00000E+000   0.00000E+000   0.00000E+000   0.00000E+000   0.00000E+000   0.00000E+000
   0.87204E-003   0.00000E+000   0.00000E+000   0.00000E+000   0.87204E-003   0.00000E+000   0.00000E+000   0.00000E+000   0.87204E-003
   0.76636E-002   0.00000E+000   0.00000E+000   0.00000E+000   0.76636E-002   0.00000E+000   0.00000E+000   0.00000E+000   0.76636E-002
   0.74558E-002   0.00000E+000   0.00000E+000   0.00000E+000   0.74558E-002   0.00000E+000   0.00000E+000   0.00000E+000   0.74558E-002
   0.68055E-002   0.00000E+000   0.00000E+000   0.00000E+000   0.68055E-002   0.00000E+000   0.00000E+000   0.00000E+000   0.68055E-002
   0.73199E-002   0.00000E+000   0.00000E+000   0.00000E+000   0.73199E-002   0.00000E+000   0.00000E+000   0.00000E+000   0.73199E-002
   0.81960E-002   0.00000E+000   0.00000E+000   0.00000E+000   0.81960E-002   0.00000E+000   0.00000E+000   0.00000E+000   0.81960E-002
   0.26920E-002   0.00000E+000   0.00000E+000   0.00000E+000   0.26920E-002   0.00000E+000   0.00000E+000   0.00000E+000   0.26920E-002
   0.17920E-002   0.00000E+000   0.00000E+000   0.00000E+000   0.17920E-002   0.00000E+000   0.00000E+000   0.00000E+000   0.17920E-002
   0.17750E-002   0.00000E+000   0.00000E+000   0.00000E+000   0.17750E-002   0.00000E+000   0.00000E+000   0.00000E+000   0.17750E-002
   0.81630E-002   0.00000E+000   0.00000E+000   0.00000E+000   0.81630E-002   0.00000E+000   0.00000E+000   0.00000E+000   0.81630E-002
   0.73869E-002   0.00000E+000   0.00000E+000   0.00000E+000   0.73869E-002   0.00000E+000   0.00000E+000   0.00000E+000   0.73869E-002
   0.12087E-002   0.00000E+000   0.00000E+000   0.00000E+000   0.12087E-002   0.00000E+000   0.00000E+000   0.00000E+000   0.12087E-002
   0.18110E-002   0.00000E+000   0.00000E+000   0.00000E+000   0.18110E-002   0.00000E+000   0.00000E+000   0.00000E+000   0.18110E-002
   0.66027E-003   0.00000E+000   0.00000E+000   0.00000E+000   0.66027E-003   0.00000E+000   0.00000E+000   0.00000E+000   0.66027E-003
   0.88303E-003   0.00000E+000   0.00000E+000   0.00000E+000   0.88303E-003   0.00000E+000   0.00000E+000   0.00000E+000   0.88303E-003
   0.11028E-002   0.00000E+000   0.00000E+000   0.00000E+000   0.11028E-002   0.00000E+000   0.00000E+000   0.00000E+000   0.11028E-002
   0.62132E-003   0.00000E+000   0.00000E+000   0.00000E+000   0.62132E-003   0.00000E+000   0.00000E+000   0.00000E+000   0.62132E-003
   0.17780E-002   0.00000E+000   0.00000E+000   0.00000E+000   0.17780E-002   0.00000E+000   0.00000E+000   0.00000E+000   0.17780E-002
   0.20138E-002   0.00000E+000   0.00000E+000   0.00000E+000   0.20138E-002   0.00000E+000   0.00000E+000   0.00000E+000   0.20138E-002
   0.28459E-002   0.00000E+000   0.00000E+000   0.00000E+000   0.28459E-002   0.00000E+000   0.00000E+000   0.00000E+000   0.28459E-002
   0.26481E-002   0.00000E+000   0.00000E+000   0.00000E+000   0.26481E-002   0.00000E+000   0.00000E+000   0.00000E+000   0.26481E-002
   0.58436E-003   0.00000E+000   0.00000E+000   0.00000E+000   0.58436E-003   0.00000E+000   0.00000E+000   0.00000E+000   0.58436E-003
   0.91799E-003   0.00000E+000   0.00000E+000   0.00000E+000   0.91799E-003   0.00000E+000   0.00000E+000   0.00000E+000   0.91799E-003
   0.47608E-002   0.00000E+000   0.00000E+000   0.00000E+000   0.47608E-002   0.00000E+000   0.00000E+000   0.00000E+000   0.47608E-002
   0.54370E-002   0.00000E+000   0.00000E+000   0.00000E+000   0.54370E-002   0.00000E+000   0.00000E+000   0.00000E+000   0.54370E-002
   0.41654E-002   0.00000E+000   0.00000E+000   0.00000E+000   0.41654E-002   0.00000E+000   0.00000E+000   0.00000E+000   0.41654E-002
   0.39037E-002   0.00000E+000   0.00000E+000   0.00000E+000   0.39037E-002   0.00000E+000   0.00000E+000   0.00000E+000   0.39037E-002
   0.44541E-002   0.00000E+000   0.00000E+000   0.00000E+000   0.44541E-002   0.00000E+000   0.00000E+000   0.00000E+000   0.44541E-002
   0.88073E-002   0.00000E+000   0.00000E+000   0.00000E+000   0.88073E-002   0.00000E+000   0.00000E+000   0.00000E+000   0.88073E-002
   0.90740E-002   0.00000E+000   0.00000E+000   0.00000E+000   0.90740E-002   0.00000E+000   0.00000E+000   0.00000E+000   0.90740E-002
   0.81540E-002   0.00000E+000   0.00000E+000   0.00000E+000   0.81540E-002   0.00000E+000   0.00000E+000   0.00000E+000   0.81540E-002
   0.65768E-002   0.00000E+000   0.00000E+000   0.00000E+000   0.65768E-002   0.00000E+000   0.00000E+000   0.00000E+000   0.65768E-002
   0.60563E-002   0.00000E+000   0.00000E+000   0.00000E+000   0.60563E-002   0.00000E+000   0.00000E+000   0.00000E+000   0.60563E-002
   0.71331E-002   0.00000E+000   0.00000E+000   0.00000E+000   0.71331E-002   0.00000E+000   0.00000E+000   0.00000E+000   0.71331E-002
   0.71971E-002   0.00000E+000   0.00000E+000   0.00000E+000   0.71971E-002   0.00000E+000   0.00000E+000   0.00000E+000   0.71971E-002
   0.11238E-002   0.00000E+000   0.00000E+000   0.00000E+000   0.11238E-002   0.00000E+000   0.00000E+000   0.00000E+000   0.11238E-002
   0.00000E+000   0.00000E+000   0.00000E+000   0.00000E+000   0.00000E+000   0.00000E+000   0.00000E+000   0.00000E+000   0.00000E+000
   0.87304E-003   0.00000E+000   0.00000E+000   0.00000E+000   0.87304E-003   0.00000E+000   0.00000E+000   0.00000E+000   0.87304E-003
   0.00000E+000   0.00000E+000   0.00000E+000   0.00000E+000   0.00000E+000   0.00000E+000   0.00000E+000   0.00000E+000   0.00000E+000
   0.72750E-002   0.00000E+000   0.00000E+000   0.00000E+000   0.72750E-002   0.00000E+000   0.00000E+000   0.00000E+000   0.72750E-002
   0.73000E-002   0.00000E+000   0.00000E+000   0.00000E+000   0.73000E-002   0.00000E+000   0.00000E+000   0.00000E+000   0.73000E-002
   0.00000E+000   0.00000E+000   0.00000E+000   0.00000E+000   0.00000E+000   0.00000E+000   0.00000E+000   0.00000E+000   0.00000E+000
   0.87793E-002   0.00000E+000   0.00000E+000   0.00000E+000   0.87793E-002   0.00000E+000   0.00000E+000   0.00000E+000   0.87793E-002
   0.94006E-002   0.00000E+000   0.00000E+000   0.00000E+000   0.94006E-002   0.00000E+000   0.00000E+000   0.00000E+000   0.94006E-002
   0.53571E-002   0.00000E+000   0.00000E+000   0.00000E+000   0.53571E-002   0.00000E+000   0.00000E+000   0.00000E+000   0.53571E-002
   0.63560E-002   0.00000E+000   0.00000E+000   0.00000E+000   0.63560E-002   0.00000E+000   0.00000E+000   0.00000E+000   0.63560E-002
   0.00000E+000   0.00000E+000   0.00000E+000   0.00000E+000   0.00000E+000   0.00000E+000   0.00000E+000   0.00000E+000   0.00000E+000
   0.00000E+000   0.00000E+000   0.00000E+000   0.00000E+000   0.00000E+000   0.00000E+000   0.00000E+000   0.00000E+000   0.00000E+000
   0.00000E+000   0.00000E+000   0.00000E+000   0.00000E+000   0.00000E+000   0.00000E+000   0.00000E+000   0.00000E+000   0.00000E+000
   0.19169E-002   0.00000E+000   0.00000E+000   0.00000E+000   0.19169E-002   0.00000E+000   0.00000E+000   0.00000E+000   0.19169E-002
   0.12866E-002   0.00000E+000   0.00000E+000   0.00000E+000   0.12866E-002   0.00000E+000   0.00000E+000   0.00000E+000   0.12866E-002
   0.72021E-003   0.00000E+000   0.00000E+000   0.00000E+000   0.72021E-003   0.00000E+000   0.00000E+000   0.00000E+000   0.72021E-003
   0.12806E-002   0.00000E+000   0.00000E+000   0.00000E+000   0.12806E-002   0.00000E+000   0.00000E+000   0.00000E+000   0.12806E-002
   0.65328E-003   0.00000E+000   0.00000E+000   0.00000E+000   0.65328E-003   0.00000E+000   0.00000E+000   0.00000E+000   0.65328E-003
   0.26271E-002   0.00000E+000   0.00000E+000   0.00000E+000   0.26271E-002   0.00000E+000   0.00000E+000   0.00000E+000   0.26271E-002
   0.19688E-002   0.00000E+000   0.00000E+000   0.00000E+000   0.19688E-002   0.00000E+000   0.00000E+000   0.00000E+000   0.19688E-002
   0.66727E-003   0.00000E+000   0.00000E+000   0.00000E+000   0.66727E-003   0.00000E+000   0.00000E+000   0.00000E+000   0.66727E-003
   0.96194E-003   0.00000E+000   0.00000E+000   0.00000E+000   0.96194E-003   0.00000E+000   0.00000E+000   0.00000E+000   0.96194E-003
   0.12346E-002   0.00000E+000   0.00000E+000   0.00000E+000   0.12346E-002   0.00000E+000   0.00000E+000   0.00000E+000   0.12346E-002
   0.20437E-002   0.00000E+000   0.00000E+000   0.00000E+000   0.20437E-002   0.00000E+000   0.00000E+000   0.00000E+000   0.20437E-002
   0.62162E-002   0.00000E+000   0.00000E+000   0.00000E+000   0.62162E-002   0.00000E+000   0.00000E+000   0.00000E+000   0.62162E-002
   0.35071E-002   0.00000E+000   0.00000E+000   0.00000E+000   0.35071E-002   0.00000E+000   0.00000E+000   0.00000E+000   0.35071E-002
   0.66627E-003   0.00000E+000   0.00000E+000   0.00000E+000   0.66627E-003   0.00000E+000   0.00000E+000   0.00000E+000   0.66627E-003
   0.19129E-002   0.00000E+000   0.00000E+000   0.00000E+000   0.19129E-002   0.00000E+000   0.00000E+000   0.00000E+000   0.19129E-002
   0.42893E-002   0.00000E+000   0.00000E+000   0.00000E+000   0.42893E-002   0.00000E+000   0.00000E+000   0.00000E+000   0.42893E-002
   0.87004E-003   0.00000E+000   0.00000E+000   0.00000E+000   0.87004E-003   0.00000E+000   0.00000E+000   0.00000E+000   0.87004E-003
   0.17491E-002   0.00000E+000   0.00000E+000   0.00000E+000   0.17491E-002   0.00000E+000   0.00000E+000   0.00000E+000   0.17491E-002
   0.17481E-002   0.00000E+000   0.00000E+000   0.00000E+000   0.17481E-002   0.00000E+000   0.00000E+000   0.00000E+000   0.17481E-002
   0.78903E-002   0.00000E+000   0.00000E+000   0.00000E+000   0.78903E-002   0.00000E+000   0.00000E+000   0.00000E+000   0.78903E-002
   0.72770E-002   0.00000E+000   0.00000E+000   0.00000E+000   0.72770E-002   0.00000E+000   0.00000E+000   0.00000E+000   0.72770E-002
   0.72021E-002   0.00000E+000   0.00000E+000   0.00000E+000   0.72021E-002   0.00000E+000   0.00000E+000   0.00000E+000   0.72021E-002
   0.86105E-002   0.00000E+000   0.00000E+000   0.00000E+000   0.86105E-002   0.00000E+000   0.00000E+000   0.00000E+000   0.86105E-002
   0.88103E-002   0.00000E+000   0.00000E+000   0.00000E+000   0.88103E-002   0.00000E+000   0.00000E+000   0.00000E+000   0.88103E-002
   0.93827E-002   0.00000E+000   0.00000E+000   0.00000E+000   0.93827E-002   0.00000E+000   0.00000E+000   0.00000E+000   0.93827E-002
   0.99890E-002   0.00000E+000   0.00000E+000   0.00000E+000   0.99890E-002   0.00000E+000   0.00000E+000   0.00000E+000   0.99890E-002
   0.93117E-002   0.00000E+000   0.00000E+000   0.00000E+000   0.93117E-002   0.00000E+000   0.00000E+000   0.00000E+000   0.93117E-002
   0.90890E-002   0.00000E+000   0.00000E+000   0.00000E+000   0.90890E-002   0.00000E+000   0.00000E+000   0.00000E+000   0.90890E-002
   0.79552E-002   0.00000E+000   0.00000E+000   0.00000E+000   0.79552E-002   0.00000E+000   0.00000E+000   0.00000E+000   0.79552E-002
   0.93427E-002   0.00000E+000   0.00000E+000   0.00000E+000   0.93427E-002   0.00000E+000   0.00000E+000   0.00000E+000   0.93427E-002
   0.91859E-002   0.00000E+000   0.00000E+000   0.00000E+000   0.91859E-002   0.00000E+000   0.00000E+000   0.00000E+000   0.91859E-002
   0.32864E-002   0.00000E+000   0.00000E+000   0.00000E+000   0.32864E-002   0.00000E+000   0.00000E+000   0.00000E+000   0.32864E-002
   0.42233E-002   0.00000E+000   0.00000E+000   0.00000E+000   0.42233E-002   0.00000E+000   0.00000E+000   0.00000E+000   0.42233E-002
   0.82599E-002   0.00000E+000   0.00000E+000   0.00000E+000   0.82599E-002   0.00000E+000   0.00000E+000   0.00000E+000   0.82599E-002
   0.63390E-002   0.00000E+000   0.00000E+000   0.00000E+000   0.63390E-002   0.00000E+000   0.00000E+000   0.00000E+000   0.63390E-002
   0.54040E-002   0.00000E+000   0.00000E+000   0.00000E+000   0.54040E-002   0.00000E+000   0.00000E+000   0.00000E+000   0.54040E-002
   0.54001E-002   0.00000E+000   0.00000E+000   0.00000E+000   0.54001E-002   0.00000E+000   0.00000E+000   0.00000E+000   0.54001E-002
   0.28838E-002   0.00000E+000   0.00000E+000   0.00000E+000   0.28838E-002   0.00000E+000   0.00000E+000   0.00000E+000   0.28838E-002
   0.42613E-002   0.00000E+000   0.00000E+000   0.00000E+000   0.42613E-002   0.00000E+000   0.00000E+000   0.00000E+000   0.42613E-002
   0.47278E-002   0.00000E+000   0.00000E+000   0.00000E+000   0.47278E-002   0.00000E+000   0.00000E+000   0.00000E+000   0.47278E-002
   0.44461E-002   0.00000E+000   0.00000E+000   0.00000E+000   0.44461E-002   0.00000E+000   0.00000E+000   0.00000E+000   0.44461E-002
   0.44970E-002   0.00000E+000   0.00000E+000   0.00000E+000   0.44970E-002   0.00000E+000   0.00000E+000   0.00000E+000   0.44970E-002
   0.27080E-002   0.00000E+000   0.00000E+000   0.00000E+000   0.27080E-002   0.00000E+000   0.00000E+000   0.00000E+000   0.27080E-002
   0.38198E-002   0.00000E+000   0.00000E+000   0.00000E+000   0.38198E-002   0.00000E+000   0.00000E+000   0.00000E+000   0.38198E-002
   0.82359E-002   0.00000E+000   0.00000E+000   0.00000E+000   0.82359E-002   0.00000E+000   0.00000E+000   0.00000E+000   0.82359E-002
   0.99890E-002   0.00000E+000   0.00000E+000   0.00000E+000   0.99890E-002   0.00000E+000   0.00000E+000   0.00000E+000   0.99890E-002
   0.99890E-002   0.00000E+000   0.00000E+000   0.00000E+000   0.99890E-002   0.00000E+000   0.00000E+000   0.00000E+000   0.99890E-002
   0.99890E-002   0.00000E+000   0.00000E+000   0.00000E+000   0.99890E-002   0.00000E+000   0.00000E+000   0.00000E+000   0.99890E-002
   0.55579E-002   0.00000E+000   0.00000E+000   0.00000E+000   0.55579E-002   0.00000E+000   0.00000E+000   0.00000E+000   0.55579E-002
   0.40805E-002   0.00000E+000   0.00000E+000   0.00000E+000   0.40805E-002   0.00000E+000   0.00000E+000   0.00000E+000   0.40805E-002
   0.35081E-002   0.00000E+000   0.00000E+000   0.00000E+000   0.35081E-002   0.00000E+000   0.00000E+000   0.00000E+000   0.35081E-002
   0.63400E-002   0.00000E+000   0.00000E+000   0.00000E+000   0.63400E-002   0.00000E+000   0.00000E+000   0.00000E+000   0.63400E-002
   0.72640E-002   0.00000E+000   0.00000E+000   0.00000E+000   0.72640E-002   0.00000E+000   0.00000E+000   0.00000E+000   0.72640E-002
   0.92888E-002   0.00000E+000   0.00000E+000   0.00000E+000   0.92888E-002   0.00000E+000   0.00000E+000   0.00000E+000   0.92888E-002
   0.99890E-002   0.00000E+000   0.00000E+000   0.00000E+000   0.99890E-002   0.00000E+000   0.00000E+000   0.00000E+000   0.99890E-002
   0.86515E-002   0.00000E+000   0.00000E+000   0.00000E+000   0.86515E-002   0.00000E+000   0.00000E+000   0.00000E+000   0.86515E-002
   0.99890E-002   0.00000E+000   0.00000E+000   0.00000E+000   0.99890E-002   0.00000E+000   0.00000E+000   0.00000E+000   0.99890E-002
   0.94076E-002   0.00000E+000   0.00000E+000   0.00000E+000   0.94076E-002   0.00000E+000   0.00000E+000   0.00000E+000   0.94076E-002
   0.87763E-002   0.00000E+000   0.00000E+000   0.00000E+000   0.87763E-002   0.00000E+000   0.00000E+000   0.00000E+000   0.87763E-002
   0.92258E-002   0.00000E+000   0.00000E+000   0.00000E+000   0.92258E-002   0.00000E+000   0.00000E+000   0.00000E+000   0.92258E-002
   0.99890E-002   0.00000E+000   0.00000E+000   0.00000E+000   0.99890E-002   0.00000E+000   0.00000E+000   0.00000E+000   0.99890E-002
   0.99890E-002   0.00000E+000   0.00000E+000   0.00000E+000   0.99890E-002   0.00000E+000   0.00000E+000   0.00000E+000   0.99890E-002
   0.89681E-002   0.00000E+000   0.00000E+000   0.00000E+000   0.89681E-002   0.00000E+000   0.00000E+000   0.00000E+000   0.89681E-002
   0.94206E-002   0.00000E+000   0.00000E+000   0.00000E+000   0.94206E-002   0.00000E+000   0.00000E+000   0.00000E+000   0.94206E-002
   0.17960E-002   0.00000E+000   0.00000E+000   0.00000E+000   0.17960E-002   0.00000E+000   0.00000E+000   0.00000E+000   0.17960E-002
   0.24433E-002   0.00000E+000   0.00000E+000   0.00000E+000   0.24433E-002   0.00000E+000   0.00000E+000   0.00000E+000   0.24433E-002
   0.64029E-003   0.00000E+000   0.00000E+000   0.00000E+000   0.64029E-003   0.00000E+000   0.00000E+000   0.00000E+000   0.64029E-003
   0.61233E-003   0.00000E+000   0.00000E+000   0.00000E+000   0.61233E-003   0.00000E+000   0.00000E+000   0.00000E+000   0.61233E-003
   0.11957E-002   0.00000E+000   0.00000E+000   0.00000E+000   0.11957E-002   0.00000E+000   0.00000E+000   0.00000E+000   0.11957E-002
   0.93897E-002   0.00000E+000   0.00000E+000   0.00000E+000   0.93897E-002   0.00000E+000   0.00000E+000   0.00000E+000   0.93897E-002
   0.61512E-002   0.00000E+000   0.00000E+000   0.00000E+000   0.61512E-002   0.00000E+000   0.00000E+000   0.00000E+000   0.61512E-002
   0.65837E-002   0.00000E+000   0.00000E+000   0.00000E+000   0.65837E-002   0.00000E+000   0.00000E+000   0.00000E+000   0.65837E-002
   0.99890E-002   0.00000E+000   0.00000E+000   0.00000E+000   0.99890E-002   0.00000E+000   0.00000E+000   0.00000E+000   0.99890E-002
   0.63340E-002   0.00000E+000   0.00000E+000   0.00000E+000   0.63340E-002   0.00000E+000   0.00000E+000   0.00000E+000   0.63340E-002
   0.63380E-002   0.00000E+000   0.00000E+000   0.00000E+000   0.63380E-002   0.00000E+000   0.00000E+000   0.00000E+000   0.63380E-002
   0.28149E-002   0.00000E+000   0.00000E+000   0.00000E+000   0.28149E-002   0.00000E+000   0.00000E+000   0.00000E+000   0.28149E-002
   0.53991E-002   0.00000E+000   0.00000E+000   0.00000E+000   0.53991E-002   0.00000E+000   0.00000E+000   0.00000E+000   0.53991E-002
   0.44791E-002   0.00000E+000   0.00000E+000   0.00000E+000   0.44791E-002   0.00000E+000   0.00000E+000   0.00000E+000   0.44791E-002
   0.53951E-002   0.00000E+000   0.00000E+000   0.00000E+000   0.53951E-002   0.00000E+000   0.00000E+000   0.00000E+000   0.53951E-002
   0.28129E-002   0.00000E+000   0.00000E+000   0.00000E+000   0.28129E-002   0.00000E+000   0.00000E+000   0.00000E+000   0.28129E-002
   0.27330E-002   0.00000E+000   0.00000E+000   0.00000E+000   0.27330E-002   0.00000E+000   0.00000E+000   0.00000E+000   0.27330E-002
   0.87064E-002   0.00000E+000   0.00000E+000   0.00000E+000   0.87064E-002   0.00000E+000   0.00000E+000   0.00000E+000   0.87064E-002
   0.54190E-002   0.00000E+000   0.00000E+000   0.00000E+000   0.54190E-002   0.00000E+000   0.00000E+000   0.00000E+000   0.54190E-002
   0.54110E-002   0.00000E+000   0.00000E+000   0.00000E+000   0.54110E-002   0.00000E+000   0.00000E+000   0.00000E+000   0.54110E-002
   0.72640E-002   0.00000E+000   0.00000E+000   0.00000E+000   0.72640E-002   0.00000E+000   0.00000E+000   0.00000E+000   0.72640E-002
   0.72290E-002   0.00000E+000   0.00000E+000   0.00000E+000   0.72290E-002   0.00000E+000   0.00000E+000   0.00000E+000   0.72290E-002
   0.63480E-002   0.00000E+000   0.00000E+000   0.00000E+000   0.63480E-002   0.00000E+000   0.00000E+000   0.00000E+000   0.63480E-002
   0.90910E-002   0.00000E+000   0.00000E+000   0.00000E+000   0.90910E-002   0.00000E+000   0.00000E+000   0.00000E+000   0.90910E-002
   0.81870E-002   0.00000E+000   0.00000E+000   0.00000E+000   0.81870E-002   0.00000E+000   0.00000E+000   0.00000E+000   0.81870E-002
   0.81840E-002   0.00000E+000   0.00000E+000   0.00000E+000   0.81840E-002   0.00000E+000   0.00000E+000   0.00000E+000   0.81840E-002
   0.00000E+000   0.00000E+000   0.00000E+000   0.00000E+000   0.00000E+000   0.00000E+000   0.00000E+000   0.00000E+000   0.00000E+000
   0.50235E-002   0.00000E+000   0.00000E+000   0.00000E+000   0.50235E-002   0.00000E+000   0.00000E+000   0.00000E+000   0.50235E-002
   0.20148E-002   0.00000E+000   0.00000E+000   0.00000E+000   0.20148E-002   0.00000E+000   0.00000E+000   0.00000E+000   0.20148E-002
   0.44791E-002   0.00000E+000   0.00000E+000   0.00000E+000   0.44791E-002   0.00000E+000   0.00000E+000   0.00000E+000   0.44791E-002
   0.79872E-002   0.00000E+000   0.00000E+000   0.00000E+000   0.79872E-002   0.00000E+000   0.00000E+000   0.00000E+000   0.79872E-002
   0.99890E-002   0.00000E+000   0.00000E+000   0.00000E+000   0.99890E-002   0.00000E+000   0.00000E+000   0.00000E+000   0.99890E-002
   0.90910E-002   0.00000E+000   0.00000E+000   0.00000E+000   0.90910E-002   0.00000E+000   0.00000E+000   0.00000E+000   0.90910E-002
   0.99890E-002   0.00000E+000   0.00000E+000   0.00000E+000   0.99890E-002   0.00000E+000   0.00000E+000   0.00000E+000   0.99890E-002
   0.99890E-002   0.00000E+000   0.00000E+000   0.00000E+000   0.99890E-002   0.00000E+000   0.00000E+000   0.00000E+000   0.99890E-002
   0.58795E-002   0.00000E+000   0.00000E+000   0.00000E+000   0.58795E-002   0.00000E+000   0.00000E+000   0.00000E+000   0.58795E-002
   0.90890E-002   0.00000E+000   0.00000E+000   0.00000E+000   0.90890E-002   0.00000E+000   0.00000E+000   0.00000E+000   0.90890E-002
   0.29368E-002   0.00000E+000   0.00000E+000   0.00000E+000   0.29368E-002   0.00000E+000   0.00000E+000   0.00000E+000   0.29368E-002
   0.19199E-002   0.00000E+000   0.00000E+000   0.00000E+000   0.19199E-002   0.00000E+000   0.00000E+000   0.00000E+000   0.19199E-002
   0.54040E-003   0.00000E+000   0.00000E+000   0.00000E+000   0.54040E-003   0.00000E+000   0.00000E+000   0.00000E+000   0.54040E-003
   0.00000E+000   0.00000E+000   0.00000E+000   0.00000E+000   0.00000E+000   0.00000E+000   0.00000E+000   0.00000E+000   0.00000E+000
   0.91000E-003   0.00000E+000   0.00000E+000   0.00000E+000   0.91000E-003   0.00000E+000   0.00000E+000   0.00000E+000   0.91000E-003
   0.00000E+000   0.00000E+000   0.00000E+000   0.00000E+000   0.00000E+000   0.00000E+000   0.00000E+000   0.00000E+000   0.00000E+000
   0.89601E-002   0.00000E+000   0.00000E+000   0.00000E+000   0.89601E-002   0.00000E+000   0.00000E+000   0.00000E+000   0.89601E-002
   0.36430E-002   0.00000E+000   0.00000E+000   0.00000E+000   0.36430E-002   0.00000E+000   0.00000E+000   0.00000E+000   0.36430E-002
   0.20318E-002   0.00000E+000   0.00000E+000   0.00000E+000   0.20318E-002   0.00000E+000   0.00000E+000   0.00000E+000   0.20318E-002
   0.52053E-002   0.00000E+000   0.00000E+000   0.00000E+000   0.52053E-002   0.00000E+000   0.00000E+000   0.00000E+000   0.52053E-002
   0.80172E-002   0.00000E+000   0.00000E+000   0.00000E+000   0.80172E-002   0.00000E+000   0.00000E+000   0.00000E+000   0.80172E-002
   0.19499E-002   0.00000E+000   0.00000E+000   0.00000E+000   0.19499E-002   0.00000E+000   0.00000E+000   0.00000E+000   0.19499E-002
   0.00000E+000   0.00000E+000   0.00000E+000   0.00000E+000   0.00000E+000   0.00000E+000   0.00000E+000   0.00000E+000   0.00000E+000
   0.20677E-002   0.00000E+000   0.00000E+000   0.00000E+000   0.20677E-002   0.00000E+000   0.00000E+000   0.00000E+000   0.20677E-002
   0.72660E-002   0.00000E+000   0.00000E+000   0.00000E+000   0.72660E-002   0.00000E+000   0.00000E+000   0.00000E+000   0.72660E-002
   0.81870E-002   0.00000E+000   0.00000E+000   0.00000E+000   0.81870E-002   0.00000E+000   0.00000E+000   0.00000E+000   0.81870E-002
   0.19119E-002   0.00000E+000   0.00000E+000   0.00000E+000   0.19119E-002   0.00000E+000   0.00000E+000   0.00000E+000   0.19119E-002
   0.59754E-002   0.00000E+000   0.00000E+000   0.00000E+000   0.59754E-002   0.00000E+000   0.00000E+000   0.00000E+000   0.59754E-002
   0.99890E-002   0.00000E+000   0.00000E+000   0.00000E+000   0.99890E-002   0.00000E+000   0.00000E+000   0.00000E+000   0.99890E-002
   0.84027E-002   0.00000E+000   0.00000E+000   0.00000E+000   0.84027E-002   0.00000E+000   0.00000E+000   0.00000E+000   0.84027E-002
   0.99890E-002   0.00000E+000   0.00000E+000   0.00000E+000   0.99890E-002   0.00000E+000   0.00000E+000   0.00000E+000   0.99890E-002
   0.19588E-002   0.00000E+000   0.00000E+000   0.00000E+000   0.19588E-002   0.00000E+000   0.00000E+000   0.00000E+000   0.19588E-002
   0.26351E-002   0.00000E+000   0.00000E+000   0.00000E+000   0.26351E-002   0.00000E+000   0.00000E+000   0.00000E+000   0.26351E-002
   0.99890E-002   0.00000E+000   0.00000E+000   0.00000E+000   0.99890E-002   0.00000E+000   0.00000E+000   0.00000E+000   0.99890E-002
   0.27709E-002   0.00000E+000   0.00000E+000   0.00000E+000   0.27709E-002   0.00000E+000   0.00000E+000   0.00000E+000   0.27709E-002
   0.14954E-002   0.00000E+000   0.00000E+000   0.00000E+000   0.14954E-002   0.00000E+000   0.00000E+000   0.00000E+000   0.14954E-002
   0.18280E-002   0.00000E+000   0.00000E+000   0.00000E+000   0.18280E-002   0.00000E+000   0.00000E+000   0.00000E+000   0.18280E-002
   0.99890E-002   0.00000E+000   0.00000E+000   0.00000E+000   0.99890E-002   0.00000E+000   0.00000E+000   0.00000E+000   0.99890E-002
   0.99890E-002   0.00000E+000   0.00000E+000   0.00000E+000   0.99890E-002   0.00000E+000   0.00000E+000   0.00000E+000   0.99890E-002
   0.00000E+000   0.00000E+000   0.00000E+000   0.00000E+000   0.00000E+000   0.00000E+000   0.00000E+000   0.00000E+000   0.00000E+000
   0.59734E-003   0.00000E+000   0.00000E+000   0.00000E+000   0.59734E-003   0.00000E+000   0.00000E+000   0.00000E+000   0.59734E-003
   0.00000E+000   0.00000E+000   0.00000E+000   0.00000E+000   0.00000E+000   0.00000E+000   0.00000E+000   0.00000E+000   0.00000E+000
   0.00000E+000   0.00000E+000   0.00000E+000   0.00000E+000   0.00000E+000   0.00000E+000   0.00000E+000   0.00000E+000   0.00000E+000
   0.11597E-002   0.00000E+000   0.00000E+000   0.00000E+000   0.11597E-002   0.00000E+000   0.00000E+000   0.00000E+000   0.11597E-002
   0.00000E+000   0.00000E+000   0.00000E+000   0.00000E+000   0.00000E+000   0.00000E+000   0.00000E+000   0.00000E+000   0.00000E+000
   0.00000E+000   0.00000E+000   0.00000E+000   0.00000E+000   0.00000E+000   0.00000E+000   0.00000E+000   0.00000E+000   0.00000E+000
   0.26441E-002   0.00000E+000   0.00000E+000   0.00000E+000   0.26441E-002   0.00000E+000   0.00000E+000   0.00000E+000   0.26441E-002
   0.78314E-003   0.00000E+000   0.00000E+000   0.00000E+000   0.78314E-003   0.00000E+000   0.00000E+000   0.00000E+000   0.78314E-003
   0.55139E-003   0.00000E+000   0.00000E+000   0.00000E+000   0.55139E-003   0.00000E+000   0.00000E+000   0.00000E+000   0.55139E-003
   0.00000E+000   0.00000E+000   0.00000E+000   0.00000E+000   0.00000E+000   0.00000E+000   0.00000E+000   0.00000E+000   0.00000E+000
   0.58106E-002   0.00000E+000   0.00000E+000   0.00000E+000   0.58106E-002   0.00000E+000   0.00000E+000   0.00000E+000   0.58106E-002
   0.50674E-002   0.00000E+000   0.00000E+000   0.00000E+000   0.50674E-002   0.00000E+000   0.00000E+000   0.00000E+000   0.50674E-002
   0.00000E+000   0.00000E+000   0.00000E+000   0.00000E+000   0.00000E+000   0.00000E+000   0.00000E+000   0.00000E+000   0.00000E+000
   0.94196E-003   0.00000E+000   0.00000E+000   0.00000E+000   0.94196E-003   0.00000E+000   0.00000E+000   0.00000E+000   0.94196E-003
   0.11637E-002   0.00000E+000   0.00000E+000   0.00000E+000   0.11637E-002   0.00000E+000   0.00000E+000   0.00000E+000   0.11637E-002
   0.00000E+000   0.00000E+000   0.00000E+000   0.00000E+000   0.00000E+000   0.00000E+000   0.00000E+000   0.00000E+000   0.00000E+000
   0.50844E-003   0.00000E+000   0.00000E+000   0.00000E+000   0.50844E-003   0.00000E+000   0.00000E+000   0.00000E+000   0.50844E-003
   0.10948E-002   0.00000E+000   0.00000E+000   0.00000E+000   0.10948E-002   0.00000E+000   0.00000E+000   0.00000E+000   0.10948E-002
   0.94806E-002   0.00000E+000   0.00000E+000   0.00000E+000   0.94806E-002   0.00000E+000   0.00000E+000   0.00000E+000   0.94806E-002
   0.88463E-002   0.00000E+000   0.00000E+000   0.00000E+000   0.88463E-002   0.00000E+000   0.00000E+000   0.00000E+000   0.88463E-002
   0.90450E-002   0.00000E+000   0.00000E+000   0.00000E+000   0.90450E-002   0.00000E+000   0.00000E+000   0.00000E+000   0.90450E-002
   0.99890E-002   0.00000E+000   0.00000E+000   0.00000E+000   0.99890E-002   0.00000E+000   0.00000E+000   0.00000E+000   0.99890E-002
   0.90410E-002   0.00000E+000   0.00000E+000   0.00000E+000   0.90410E-002   0.00000E+000   0.00000E+000   0.00000E+000   0.90410E-002
   0.80681E-002   0.00000E+000   0.00000E+000   0.00000E+000   0.80681E-002   0.00000E+000   0.00000E+000   0.00000E+000   0.80681E-002
   0.91349E-002   0.00000E+000   0.00000E+000   0.00000E+000   0.91349E-002   0.00000E+000   0.00000E+000   0.00000E+000   0.91349E-002
   0.99890E-002   0.00000E+000   0.00000E+000   0.00000E+000   0.99890E-002   0.00000E+000   0.00000E+000   0.00000E+000   0.99890E-002
   0.27480E-002   0.00000E+000   0.00000E+000   0.00000E+000   0.27480E-002   0.00000E+000   0.00000E+000   0.00000E+000   0.27480E-002
   0.35761E-002   0.00000E+000   0.00000E+000   0.00000E+000   0.35761E-002   0.00000E+000   0.00000E+000   0.00000E+000   0.35761E-002
   0.27450E-002   0.00000E+000   0.00000E+000   0.00000E+000   0.27450E-002   0.00000E+000   0.00000E+000   0.00000E+000   0.27450E-002
   0.66207E-002   0.00000E+000   0.00000E+000   0.00000E+000   0.66207E-002   0.00000E+000   0.00000E+000   0.00000E+000   0.66207E-002
   0.72410E-002   0.00000E+000   0.00000E+000   0.00000E+000   0.72410E-002   0.00000E+000   0.00000E+000   0.00000E+000   0.72410E-002
   0.72700E-002   0.00000E+000   0.00000E+000   0.00000E+000   0.72700E-002   0.00000E+000   0.00000E+000   0.00000E+000   0.72700E-002
   0.64549E-002   0.00000E+000   0.00000E+000   0.00000E+000   0.64549E-002   0.00000E+000   0.00000E+000   0.00000E+000   0.64549E-002
   0.99890E-002   0.00000E+000   0.00000E+000   0.00000E+000   0.99890E-002   0.00000E+000   0.00000E+000   0.00000E+000   0.99890E-002
   0.95505E-002   0.00000E+000   0.00000E+000   0.00000E+000   0.95505E-002   0.00000E+000   0.00000E+000   0.00000E+000   0.95505E-002
   0.99890E-002   0.00000E+000   0.00000E+000   0.00000E+000   0.99890E-002   0.00000E+000   0.00000E+000   0.00000E+000   0.99890E-002
   0.72191E-002   0.00000E+000   0.00000E+000   0.00000E+000   0.72191E-002   0.00000E+000   0.00000E+000   0.00000E+000   0.72191E-002
   0.64359E-002   0.00000E+000   0.00000E+000   0.00000E+000   0.64359E-002   0.00000E+000   0.00000E+000   0.00000E+000   0.64359E-002
   0.27250E-002   0.00000E+000   0.00000E+000   0.00000E+000   0.27250E-002   0.00000E+000   0.00000E+000   0.00000E+000   0.27250E-002
   0.90930E-002   0.00000E+000   0.00000E+000   0.00000E+000   0.90930E-002   0.00000E+000   0.00000E+000   0.00000E+000   0.90930E-002
   0.80711E-002   0.00000E+000   0.00000E+000   0.00000E+000   0.80711E-002   0.00000E+000   0.00000E+000   0.00000E+000   0.80711E-002
   0.53751E-002   0.00000E+000   0.00000E+000   0.00000E+000   0.53751E-002   0.00000E+000   0.00000E+000   0.00000E+000   0.53751E-002
   0.00000E+000   0.00000E+000   0.00000E+000   0.00000E+000   0.00000E+000   0.00000E+000   0.00000E+000   0.00000E+000   0.00000E+000
   0.18330E-002   0.00000E+000   0.00000E+000   0.00000E+000   0.18330E-002   0.00000E+000   0.00000E+000   0.00000E+000   0.18330E-002
   0.99890E-002   0.00000E+000   0.00000E+000   0.00000E+000   0.99890E-002   0.00000E+000   0.00000E+000   0.00000E+000   0.99890E-002
   0.81390E-002   0.00000E+000   0.00000E+000   0.00000E+000   0.81390E-002   0.00000E+000   0.00000E+000   0.00000E+000   0.81390E-002
   0.00000E+000   0.00000E+000   0.00000E+000   0.00000E+000   0.00000E+000   0.00000E+000   0.00000E+000   0.00000E+000   0.00000E+000
   0.00000E+000   0.00000E+000   0.00000E+000   0.00000E+000   0.00000E+000   0.00000E+000   0.00000E+000   0.00000E+000   0.00000E+000
   0.86904E-003   0.00000E+000   0.00000E+000   0.00000E+000   0.86904E-003   0.00000E+000   0.00000E+000   0.00000E+000   0.86904E-003
   0.99890E-002   0.00000E+000   0.00000E+000   0.00000E+000   0.99890E-002   0.00000E+000   0.00000E+000   0.00000E+000   0.99890E-002
   0.99890E-002   0.00000E+000   0.00000E+000   0.00000E+000   0.99890E-002   0.00000E+000   0.00000E+000   0.00000E+000   0.99890E-002
   0.99890E-002   0.00000E+000   0.00000E+000   0.00000E+000   0.99890E-002   0.00000E+000   0.00000E+000   0.00000E+000   0.99890E-002
   0.99890E-002   0.00000E+000   0.00000E+000   0.00000E+000   0.99890E-002   0.00000E+000   0.00000E+000   0.00000E+000   0.99890E-002
   0.17651E-002   0.00000E+000   0.00000E+000   0.00000E+000   0.17651E-002   0.00000E+000   0.00000E+000   0.00000E+000   0.17651E-002
   0.99890E-002   0.00000E+000   0.00000E+000   0.00000E+000   0.99890E-002   0.00000E+000   0.00000E+000   0.00000E+000   0.99890E-002
   0.17521E-002   0.00000E+000   0.00000E+000   0.00000E+000   0.17521E-002   0.00000E+000   0.00000E+000   0.00000E+000   0.17521E-002
   0.17611E-002   0.00000E+000   0.00000E+000   0.00000E+000   0.17611E-002   0.00000E+000   0.00000E+000   0.00000E+000   0.17611E-002
   0.87504E-003   0.00000E+000   0.00000E+000   0.00000E+000   0.87504E-003   0.00000E+000   0.00000E+000   0.00000E+000   0.87504E-003
   0.00000E+000   0.00000E+000   0.00000E+000   0.00000E+000   0.00000E+000   0.00000E+000   0.00000E+000   0.00000E+000   0.00000E+000
   0.99890E-002   0.00000E+000   0.00000E+000   0.00000E+000   0.99890E-002   0.00000E+000   0.00000E+000   0.00000E+000   0.99890E-002
   0.99890E-002   0.00000E+000   0.00000E+000   0.00000E+000   0.99890E-002   0.00000E+000   0.00000E+000   0.00000E+000   0.99890E-002
   0.99890E-002   0.00000E+000   0.00000E+000   0.00000E+000   0.99890E-002   0.00000E+000   0.00000E+000   0.00000E+000   0.99890E-002
   0.90830E-002   0.00000E+000   0.00000E+000   0.00000E+000   0.90830E-002   0.00000E+000   0.00000E+000   0.00000E+000   0.90830E-002
   0.81500E-002   0.00000E+000   0.00000E+000   0.00000E+000   0.81500E-002   0.00000E+000   0.00000E+000   0.00000E+000   0.81500E-002
   0.99890E-002   0.00000E+000   0.00000E+000   0.00000E+000   0.99890E-002   0.00000E+000   0.00000E+000   0.00000E+000   0.99890E-002
   0.88802E-003   0.00000E+000   0.00000E+000   0.00000E+000   0.88802E-003   0.00000E+000   0.00000E+000   0.00000E+000   0.88802E-003
   0.00000E+000   0.00000E+000   0.00000E+000   0.00000E+000   0.00000E+000   0.00000E+000   0.00000E+000   0.00000E+000   0.00000E+000
   0.17441E-002   0.00000E+000   0.00000E+000   0.00000E+000   0.17441E-002   0.00000E+000   0.00000E+000   0.00000E+000   0.17441E-002
   0.44821E-002   0.00000E+000   0.00000E+000   0.00000E+000   0.44821E-002   0.00000E+000   0.00000E+000   0.00000E+000   0.44821E-002
   0.43862E-002   0.00000E+000   0.00000E+000   0.00000E+000   0.43862E-002   0.00000E+000   0.00000E+000   0.00000E+000   0.43862E-002
   0.99890E-002   0.00000E+000   0.00000E+000   0.00000E+000   0.99890E-002   0.00000E+000   0.00000E+000   0.00000E+000   0.99890E-002
   0.99890E-002   0.00000E+000   0.00000E+000   0.00000E+000   0.99890E-002   0.00000E+000   0.00000E+000   0.00000E+000   0.99890E-002
   0.00000E+000   0.00000E+000   0.00000E+000   0.00000E+000   0.00000E+000   0.00000E+000   0.00000E+000   0.00000E+000   0.00000E+000
   0.90910E-002   0.00000E+000   0.00000E+000   0.00000E+000   0.90910E-002   0.00000E+000   0.00000E+000   0.00000E+000   0.90910E-002
   0.17441E-002   0.00000E+000   0.00000E+000   0.00000E+000   0.17441E-002   0.00000E+000   0.00000E+000   0.00000E+000   0.17441E-002
   0.88003E-003   0.00000E+000   0.00000E+000   0.00000E+000   0.88003E-003   0.00000E+000   0.00000E+000   0.00000E+000   0.88003E-003
   0.00000E+000   0.00000E+000   0.00000E+000   0.00000E+000   0.00000E+000   0.00000E+000   0.00000E+000   0.00000E+000   0.00000E+000
   0.26151E-002   0.00000E+000   0.00000E+000   0.00000E+000   0.26151E-002   0.00000E+000   0.00000E+000   0.00000E+000   0.26151E-002
   0.99890E-002   0.00000E+000   0.00000E+000   0.00000E+000   0.99890E-002   0.00000E+000   0.00000E+000   0.00000E+000   0.99890E-002
   0.99890E-002   0.00000E+000   0.00000E+000   0.00000E+000   0.99890E-002   0.00000E+000   0.00000E+000   0.00000E+000   0.99890E-002
   0.44871E-002   0.00000E+000   0.00000E+000   0.00000E+000   0.44871E-002   0.00000E+000   0.00000E+000   0.00000E+000   0.44871E-002
   0.36110E-002   0.00000E+000   0.00000E+000   0.00000E+000   0.36110E-002   0.00000E+000   0.00000E+000   0.00000E+000   0.36110E-002
   0.35950E-002   0.00000E+000   0.00000E+000   0.00000E+000   0.35950E-002   0.00000E+000   0.00000E+000   0.00000E+000   0.35950E-002
   0.90870E-002   0.00000E+000   0.00000E+000   0.00000E+000   0.90870E-002   0.00000E+000   0.00000E+000   0.00000E+000   0.90870E-002
   0.00000E+000   0.00000E+000   0.00000E+000   0.00000E+000   0.00000E+000   0.00000E+000   0.00000E+000   0.00000E+000   0.00000E+000
   0.64489E-002   0.00000E+000   0.00000E+000   0.00000E+000   0.64489E-002   0.00000E+000   0.00000E+000   0.00000E+000   0.64489E-002
   0.35601E-002   0.00000E+000   0.00000E+000   0.00000E+000   0.35601E-002   0.00000E+000   0.00000E+000   0.00000E+000   0.35601E-002
   0.35571E-002   0.00000E+000   0.00000E+000   0.00000E+000   0.35571E-002   0.00000E+000   0.00000E+000   0.00000E+000   0.35571E-002
   0.00000E+000   0.00000E+000   0.00000E+000   0.00000E+000   0.00000E+000   0.00000E+000   0.00000E+000   0.00000E+000   0.00000E+000
   0.99890E-002   0.00000E+000   0.00000E+000   0.00000E+000   0.99890E-002   0.00000E+000   0.00000E+000   0.00000E+000   0.99890E-002
   0.35831E-002   0.00000E+000   0.00000E+000   0.00000E+000   0.35831E-002   0.00000E+000   0.00000E+000   0.00000E+000   0.35831E-002
   0.44221E-002   0.00000E+000   0.00000E+000   0.00000E+000   0.44221E-002   0.00000E+000   0.00000E+000   0.00000E+000   0.44221E-002
   0.99890E-002   0.00000E+000   0.00000E+000   0.00000E+000   0.99890E-002   0.00000E+000   0.00000E+000   0.00000E+000   0.99890E-002
   0.00000E+000   0.00000E+000   0.00000E+000   0.00000E+000   0.00000E+000   0.00000E+000   0.00000E+000   0.00000E+000   0.00000E+000
   0.99890E-002   0.00000E+000   0.00000E+000   0.00000E+000   0.99890E-002   0.00000E+000   0.00000E+000   0.00000E+000   0.99890E-002
   0.00000E+000   0.00000E+000   0.00000E+000   0.00000E+000   0.00000E+000   0.00000E+000   0.00000E+000   0.00000E+000   0.00000E+000
   0.52033E-002   0.00000E+000   0.00000E+000   0.00000E+000   0.52033E-002   0.00000E+000   0.00000E+000   0.00000E+000   0.52033E-002
   0.53341E-002   0.00000E+000   0.00000E+000   0.00000E+000   0.53341E-002   0.00000E+000   0.00000E+000   0.00000E+000   0.53341E-002
   0.34632E-002   0.00000E+000   0.00000E+000   0.00000E+000   0.34632E-002   0.00000E+000   0.00000E+000   0.00000E+000   0.34632E-002
   0.42154E-002   0.00000E+000   0.00000E+000   0.00000E+000   0.42154E-002   0.00000E+000   0.00000E+000   0.00000E+000   0.42154E-002
   0.72210E-002   0.00000E+000   0.00000E+000   0.00000E+000   0.72210E-002   0.00000E+000   0.00000E+000   0.00000E+000   0.72210E-002
   0.26181E-002   0.00000E+000   0.00000E+000   0.00000E+000   0.26181E-002   0.00000E+000   0.00000E+000   0.00000E+000   0.26181E-002
   0.34862E-002   0.00000E+000   0.00000E+000   0.00000E+000   0.34862E-002   0.00000E+000   0.00000E+000   0.00000E+000   0.34862E-002
   0.17481E-002   0.00000E+000   0.00000E+000   0.00000E+000   0.17481E-002   0.00000E+000   0.00000E+000   0.00000E+000   0.17481E-002
   0.17471E-002   0.00000E+000   0.00000E+000   0.00000E+000   0.17471E-002   0.00000E+000   0.00000E+000   0.00000E+000   0.17471E-002
   0.62571E-002   0.00000E+000   0.00000E+000   0.00000E+000   0.62571E-002   0.00000E+000   0.00000E+000   0.00000E+000   0.62571E-002
   0.99890E-002   0.00000E+000   0.00000E+000   0.00000E+000   0.99890E-002   0.00000E+000   0.00000E+000   0.00000E+000   0.99890E-002
   0.26631E-002   0.00000E+000   0.00000E+000   0.00000E+000   0.26631E-002   0.00000E+000   0.00000E+000   0.00000E+000   0.26631E-002
   0.35731E-002   0.00000E+000   0.00000E+000   0.00000E+000   0.35731E-002   0.00000E+000   0.00000E+000   0.00000E+000   0.35731E-002
   0.26651E-002   0.00000E+000   0.00000E+000   0.00000E+000   0.26651E-002   0.00000E+000   0.00000E+000   0.00000E+000   0.26651E-002
   0.72091E-002   0.00000E+000   0.00000E+000   0.00000E+000   0.72091E-002   0.00000E+000   0.00000E+000   0.00000E+000   0.72091E-002
   0.00000E+000   0.00000E+000   0.00000E+000   0.00000E+000   0.00000E+000   0.00000E+000   0.00000E+000   0.00000E+000   0.00000E+000
   0.26491E-002   0.00000E+000   0.00000E+000   0.00000E+000   0.26491E-002   0.00000E+000   0.00000E+000   0.00000E+000   0.26491E-002
   0.35551E-002   0.00000E+000   0.00000E+000   0.00000E+000   0.35551E-002   0.00000E+000   0.00000E+000   0.00000E+000   0.35551E-002
   0.26501E-002   0.00000E+000   0.00000E+000   0.00000E+000   0.26501E-002   0.00000E+000   0.00000E+000   0.00000E+000   0.26501E-002
   0.26551E-002   0.00000E+000   0.00000E+000   0.00000E+000   0.26551E-002   0.00000E+000   0.00000E+000   0.00000E+000   0.26551E-002
   0.99890E-002   0.00000E+000   0.00000E+000   0.00000E+000   0.99890E-002   0.00000E+000   0.00000E+000   0.00000E+000   0.99890E-002
   0.99890E-002   0.00000E+000   0.00000E+000   0.00000E+000   0.99890E-002   0.00000E+000   0.00000E+000   0.00000E+000   0.99890E-002
   0.99890E-002   0.00000E+000   0.00000E+000   0.00000E+000   0.99890E-002   0.00000E+000   0.00000E+000   0.00000E+000   0.99890E-002
   0.00000E+000   0.00000E+000   0.00000E+000   0.00000E+000   0.00000E+000   0.00000E+000   0.00000E+000   0.00000E+000   0.00000E+000
   0.62451E-002   0.00000E+000   0.00000E+000   0.00000E+000   0.62451E-002   0.00000E+000   0.00000E+000   0.00000E+000   0.62451E-002
   0.00000E+000   0.00000E+000   0.00000E+000   0.00000E+000   0.00000E+000   0.00000E+000   0.00000E+000   0.00000E+000   0.00000E+000
   0.99890E-002   0.00000E+000   0.00000E+000   0.00000E+000   0.99890E-002   0.00000E+000   0.00000E+000   0.00000E+000   0.99890E-002
   0.63410E-002   0.00000E+000   0.00000E+000   0.00000E+000   0.63410E-002   0.00000E+000   0.00000E+000   0.00000E+000   0.63410E-002
   0.99890E-002   0.00000E+000   0.00000E+000   0.00000E+000   0.99890E-002   0.00000E+000   0.00000E+000   0.00000E+000   0.99890E-002
   0.35561E-002   0.00000E+000   0.00000E+000   0.00000E+000   0.35561E-002   0.00000E+000   0.00000E+000   0.00000E+000   0.35561E-002
